atomiccoordinatesformat Ang
cdfsave True
dminitspinaf False
dmmixingweight 0.025
dmmixscf1 True
dmnumberpulay 10
dmtolerance 1e-05
electronictemperature 50.000 K
geometrymustconverge T
latticeconstant 1.0 Ang
maxscfiterations 1000
meshcutoff 400 Ry
noncollinearspin False
numberofatoms 64
numberofspecies 2
savehs True
solutionmethod diagon
spinorbit False
spinpolarized False
systemlabel aiida
systemname aiida
usetreetimer T
writedmhsnetcdf True
writeorbmom True
xcauthors PBEsol
xcfunctional GGA
xmlwrite T
#
# -- Basis Set Info follows
#
PAO-BasisSize DZP
PAO-SplitNorm 0.15
PAO-EnergyShift 0.005 Ry
#
# -- Structural Info follows
#
%block chemicalspecieslabel
    1     5      B
    2     7      N
%endblock chemicalspecieslabel
%block lattice-vectors
      9.2064900000       0.0000000000       0.0000000000
      0.0000000000       9.2064900000       0.0000000000
      0.0000000000       0.0000000000       9.2064900000
%endblock lattice-vectors
%block atomiccoordinatesandatomicspecies
      8.7044601003       4.7130784257       7.7396199483    1      B      1
      7.3333375446       8.5276954923       1.7101975824    1      B      2
      4.4824558512       4.5978131709       0.1377290904    1      B      3
      7.3190674851       7.4990543646       5.8170286416    1      B      4
      5.2850776494       6.4886420871       5.1441262875    1      B      5
      2.8418593332       3.9697464231       1.9510393608    1      B      6
      2.0646474474       4.3960069101       4.1821401474    1      B      7
      2.2255768926       7.8499136985       0.5759580144    1      B      8
      7.9810141161       4.8747443901       8.4065380839    1      B      9
      4.9509741273       4.1409871371       6.6682607070    1      B     10
      1.0298379714       5.3929777122       0.3549101895    1      B     11
      8.0133288960       6.4003518480       1.3207630554    1      B     12
      3.3895534233       2.2805396379       3.8219822586    1      B     13
      6.6271076967       3.0515831754       7.1207596905    1      B     14
      1.8672603018       0.8403684072       8.6840216925    1      B     15
      5.0792205330       2.9887949136       2.0824159731    1      B     16
      5.9762088537       2.7355243737       4.5862129935    1      B     17
      0.2900964999       5.2581026337       5.5859457426    1      B     18
      3.2196016179       1.0631654652       6.2933724342    1      B     19
      7.2551744445       2.9379750888       0.4112539083    1      B     20
      0.2481149055       5.8067173728       3.2558751885    1      B     21
      3.0552657714       7.9655472129       5.1177957261    1      B     22
      1.4112628521       0.5808374541       3.9530826762    1      B     23
      5.7848979915       6.9028420722       0.7576020621    1      B     24
      6.7969674372       0.4830645303       6.4015486917    1      B     25
      7.1952401946       6.3522939702       3.7130694819    1      B     26
      0.7426875483       2.9755375680       9.0890151876    1      B     27
      7.0648762962       4.9416755724       5.7294749217    1      B     28
      2.6806536933       0.7830119745       1.8148753737    1      B     29
      7.7914524870       0.4948488375       4.1766162534    1      B     30
      7.4474059557       7.7321626914       8.5490545491    1      B     31
      3.1913376936       2.6341609188       0.4910741766    1      B     32
      8.2113604959       6.2055425196       2.7289877658    2      N     33
      1.6985974050       6.6564763998       0.1240114203    2      N     34
      4.1110660446       7.1309788944       4.8053274555    2      N     35
      7.6211324220       7.3672174278       7.2073006965    2      N     36
      4.8755729742       2.6507326008       3.5046345483    2      N     37
      1.7480362563       4.7258754468       1.4461554492    2      N     38
      0.4969663302       0.5092109619       8.3462355744    2      N     39
      6.1045473243       3.7273395414       5.8161079926    2      N     40
      2.2624949175       0.0586453413       0.6624990204    2      N     41
      0.0042349854       0.8499431568       3.9673527357    2      N     42
      7.0537364433       1.7844018918       4.3656254931    2      N     43
      7.1263756494       7.4316628578       0.7562210886    2      N     44
      8.6446179153       2.5921793244       0.3727707801    2      N     45
      4.3961910399       4.3276947543       7.9427151177    2      N     46
      4.9008908217       5.8566165486       0.6184919982    2      N     47
      7.0250121945       3.7234728156       8.3795630682    2      N     48
      0.9433890303       5.2115177943       4.3487776164    2      N     49
      2.7866203932       0.7283254239       7.5520837470    2      N     50
      8.3884933635       4.9307198493       6.3677608734    2      N     51
      0.7321000848       4.3412282946       8.5529212749    2      N     52
      1.9535251131       2.2112147682       9.1639560162    2      N     53
      7.3671253629       8.9221015239       5.3671995402    2      N     54
      6.3118774791       2.7195050811       1.4435776320    2      N     55
      4.0348363074       3.5964232536       1.1590050261    2      N     56
      2.0007544068       8.7584101317       4.7531266572    2      N     57
      6.7140169623       6.2949375375       5.0939509170    2      N     58
      7.2158627322       9.0920533293       2.9750772435    2      N     59
      3.3354192621       1.9532489184       5.2415309517    2      N     60
      6.6757179639       1.6411489074       7.0812638484    2      N     61
      2.5198163130       1.2018152046       3.1601276925    2      N     62
      2.8100048778       3.5804039610       3.3265810317    2      N     63
      8.6898217812       5.5505007561       0.3777422847    2      N     64
%endblock atomiccoordinatesandatomicspecies
#
# -- K-points Info follows
#
%block kgrid_monkhorst_pack
     6      0      0       0.0000000000
     0      6      0       0.0000000000
     0      0      6       0.0000000000
%endblock kgrid_monkhorst_pack
#
# -- Max wall-clock time block
#
maxwalltime 7200000
