atomiccoordinatesformat Ang
cdfsave True
dminitspinaf False
dmmixingweight 0.025
dmmixscf1 True
dmnumberpulay 10
dmtolerance 1e-05
electronictemperature 50.000 K
geometrymustconverge T
latticeconstant 1.0 Ang
maxscfiterations 1000
meshcutoff 600 Ry
noncollinearspin False
numberofatoms 64
numberofspecies 3
savehs True
solutionmethod diagon
spinorbit False
spinpolarized False
systemlabel aiida
systemname aiida
usetreetimer T
writedmhsnetcdf True
writeorbmom True
xcauthors PBEsol
xcfunctional GGA
xmlwrite T
#
# -- Basis Set Info follows
#
PAO-BasisSize DZP
PAO-SplitNorm 0.15
PAO-EnergyShift 0.005 Ry
#
# -- Structural Info follows
#
%block chemicalspecieslabel
    1     5      B
    2     7      N
    3     6      C
%endblock chemicalspecieslabel
%block lattice-vectors
      8.5217200000       0.0000000000       0.0000000000
      0.0000000000       8.5217200000       0.0000000000
      0.0000000000       0.0000000000       8.5217200000
%endblock lattice-vectors
%block atomiccoordinatesandatomicspecies
      3.3023369344       0.5425779124       4.4318909204    1      B      1
      6.7218475188       1.2422963416       7.3810025608    1      B      2
      0.4583833188       1.7057074752       2.7278877892    1      B      3
      3.7782749964       4.5569897700       2.0611484164    1      B      4
      7.7808416632       6.8617741612       8.4843948664    1      B      5
      0.8704084808       1.7230917840       0.4664789528    1      B      6
      0.7547687404       3.0242732108       4.7176241920    1      B      7
      7.2373263616       1.3744682188       4.7523928096    1      B      8
      0.2181560320       1.6319093800       6.5397383624    1      B      9
      1.4765584244       4.8550795356       6.0385760092    1      B     10
      1.3276839760       4.7589545340       3.2979908572    1      B     11
      8.3186474124       4.5108020476       0.1079701924    1      B     12
      2.4361040964       2.8827274416       3.3252603612    1      B     13
      6.0114769396       6.4296377400       6.9368505144    1      B     14
      5.9462005644       8.4052280876       3.5161468892    1      B     15
      3.9667754428       6.8931340908       5.2992315820    1      B     16
      4.6956381544       6.0521255440       3.2937299972    1      B     17
      5.2266265276       3.8207131620       7.9400273928    1      B     18
      4.4921394808       3.7479376732       4.1206777060    1      B     19
      2.4847631176       1.8368567460       7.5553569520    1      B     20
      0.7622678540       8.2669205720       7.1872186480    1      B     21
      5.5362206152       3.3884915236       1.7102239868    2      N     22
      4.0369091984       7.8813979592       2.5445855920    2      N     23
      0.1429944616       6.0690837668       1.9951050864    2      N     24
      6.3058171484       5.1725988228       0.5741934936    2      N     25
      2.1945133344       0.7650800216       2.2408714912    2      N     26
      2.9261029964       0.0635720312       6.5537992004    2      N     27
      1.0709245524       8.0261819820       0.8021495036    2      N     28
      6.5238879632       3.1352260052       3.8902503972    2      N     29
      7.4324737496       8.0415210780       6.0912402388    2      N     30
      7.2058812148       2.7273764860       0.4868458636    2      N     31
      7.9227283012       3.6491709384       2.4362745308    2      N     32
      8.5137948004       6.8093655832       4.5826401472    2      N     33
      6.3470622732       6.8615185096       4.4874525348    2      N     34
      6.6892093312       5.4111217656       2.7306999568    2      N     35
      2.8542648968       4.2347835368       0.0158503992    2      N     36
      2.9294264672       5.3291428192       4.5165116000    2      N     37
      1.0216690108       0.6321411896       4.7759979740    2      N     38
      5.2785238024       8.1247782824       7.7521234668    2      N     39
      7.9803351284       5.7407418952       6.6057816924    2      N     40
      2.9065030404       2.4388310468       5.5001737396    2      N     41
      7.4962162152       0.3387383700       0.5575761396    2      N     42
      3.1959858688       8.1575016872       0.2988567204    3      C     43
      0.9568187216       3.4045123572       7.2891384192    3      C     44
      3.8253148908       4.1139455472       6.4834950104    3      C     45
      3.7052438560       6.1442453372       7.2848775592    3      C     46
      8.2615518884       8.0622288576       2.8408857964    3      C     47
      1.2599363020       3.7256107668       1.2987953452    3      C     48
      7.2611871776       3.5844910836       6.7070197260    3      C     49
      7.8638432160       4.7400363156       4.5334698228    3      C     50
      3.3750272060       2.3820763916       1.3778769068    3      C     51
      1.6187859312       6.0954158816       8.1987468120    3      C     52
      5.1160998192       0.2398864180       5.6945541728    3      C     53
      1.6528728112       6.8699550124       5.8630285772    3      C     54
      6.0949897956       7.3866268960       1.3573395616    3      C     55
      6.8991845120       1.3375691712       2.4152258824    3      C     56
      1.8894357584       7.4961309980       3.5051538704    3      C     57
      4.4076892356       6.2093512780       0.7298853180    3      C     58
      5.7324758268       4.8753612292       5.4325965000    3      C     59
      4.4973377300       1.7624621304       3.2191649472    3      C     60
      4.3933727460       1.8348967504       7.8060659544    3      C     61
      2.3933250620       6.2433529408       1.7922881504    3      C     62
      5.4192173996       2.3640955624       5.7801974588    3      C     63
      5.1030615876       1.0552445876       1.1915921076    3      C     64
%endblock atomiccoordinatesandatomicspecies
#
# -- K-points Info follows
#
%block kgrid_monkhorst_pack
     8      0      0       0.0000000000
     0      8      0       0.0000000000
     0      0      8       0.0000000000
%endblock kgrid_monkhorst_pack
#
# -- Max wall-clock time block
#
maxwalltime 7200000
