atomiccoordinatesformat Ang
cdfsave True
dminitspinaf False
dmmixingweight 0.025
dmmixscf1 True
dmnumberpulay 10
dmtolerance 1e-05
electronictemperature 50.000 K
geometrymustconverge T
latticeconstant 1.0 Ang
maxscfiterations 1000
meshcutoff 600 Ry
noncollinearspin False
numberofatoms 64
numberofspecies 3
savehs True
solutionmethod diagon
spinorbit False
spinpolarized False
systemlabel aiida
systemname aiida
usetreetimer T
writedmhsnetcdf True
writeorbmom True
xcauthors PBEsol
xcfunctional GGA
xmlwrite T
#
# -- Basis Set Info follows
#
PAO-BasisSize DZP
PAO-SplitNorm 0.15
PAO-EnergyShift 0.005 Ry
#
# -- Structural Info follows
#
%block chemicalspecieslabel
    1     5      B
    2     7      N
    3     6      C
%endblock chemicalspecieslabel
%block lattice-vectors
      7.4584200000       0.0000000000       0.0000000000
      0.0000000000       7.4584200000       0.0000000000
      0.0000000000       0.0000000000       7.4584200000
%endblock lattice-vectors
%block atomiccoordinatesandatomicspecies
      0.3950725074       4.9337448300       3.5915275668    1      B      1
      0.0366208422       0.6702136212       4.1701517904    1      B      2
      0.0059667360       5.8212222258       5.8999831410    1      B      3
      5.1349730016       7.1913339798       1.8534173700    1      B      4
      6.3758303370       7.1908118904       7.4574504054    1      B      5
      1.0265023446       3.7833581292       5.3260577220    1      B      6
      5.3884846974       4.7314724796       2.3543994414    1      B      7
      4.8368599542       5.1958337088       4.7926315236    1      B      8
      3.3182510580       3.8680857804       2.8381525626    1      B      9
      3.4428812562       2.0321956974       1.4863139376    1      B     10
      5.4175725354       2.6738435700       4.6688963358    1      B     11
      3.1876541238       0.2141312382       3.1296276162    1      B     12
      4.2764342754       7.3620572136       6.3479358462    1      B     13
      6.2537360016       4.5142087050       7.2742716102    1      B     14
      3.8909085456       5.5711414032       7.4245587732    1      B     15
      2.2613929440       6.2679069996       4.9470208176    1      B     16
      7.2876967662       2.6269301082       2.3216569776    1      B     17
      2.9692715862       0.9818264088       7.2689015478    1      B     18
      0.3016185048       1.6671060384       7.3742890224    1      B     19
      2.9814288108       3.0192430002       5.3458971192    1      B     20
      3.5666910282       1.9459763622       3.2900582304    2      N     21
      5.9208667170       3.2406089058       0.8876265642    2      N     22
      0.9678791634       5.3288919216       7.1550860586    2      N     23
      4.1238350022       1.4627453304       5.3758053834    2      N     24
      1.7246104566       1.9263607176       1.4197848312    2      N     25
      0.6403053570       6.3696398484       4.5274101084    2      N     26
      2.4969298476       4.5477715950       5.9410044510    2      N     27
      1.8238820268       1.9865501670       6.4925546100    2      N     28
      5.8764145338       6.2870751390       6.0044756052    2      N     29
      6.3319748274       3.7973053746       3.3780675864    2      N     30
      5.3793854250       5.7831842838       0.7741839960    2      N     31
      6.9645980118       1.1749249026       1.3815231366    2      N     32
      4.6681504938       4.3433363028       6.4477295058    2      N     33
      4.9403828238       0.2735748456       3.6899787108    2      N     34
      4.0092736710       5.8132417164       2.7737863980    2      N     35
      2.4823859286       5.0314501320       3.8099846886    2      N     36
      3.9098529324       6.5866052862       4.9733490402    2      N     37
      4.1522515824       3.7684412892       4.3220798058    2      N     38
      0.4002188172       0.1998110718       6.4051419276    2      N     39
      0.1518534312       2.2516969980       4.8967510668    2      N     40
      3.5405865582       0.1197822252       1.3597445502    2      N     41
      1.9905031296       0.7062377898       5.1474285630    3      C     42
      2.1028269348       2.0308531818       4.0014423300    3      C     43
      2.4129480384       6.6192731658       6.8733815352    3      C     44
      0.4507123206       3.4970293854       7.3713056544    3      C     45
      0.0271486488       4.8047887482       1.7108123796    3      C     46
      2.6653409712       5.5952320998       1.3487060886    3      C     47
      6.7571793516       4.1270421228       5.4194371404    3      C     48
      5.1364646856       2.1135670596       1.8696021414    3      C     49
      6.2709649518       2.3417947116       6.4272188508    3      C     50
      7.0494748314       7.2157230132       2.4670215834    3      C     51
      5.1367630224       1.0591702242       0.1220943354    3      C     52
      4.2566694624       2.7353755350       6.9120907350    3      C     53
      0.0948711024       6.2997544530       1.0499217834    3      C     54
      1.2228079590       3.2369542800       3.3031850496    3      C     55
      3.9824233590       3.9124633794       1.2254929902    3      C     56
      6.1116531006       0.6365761470       5.3877388554    3      C     57
      2.4747037560       3.5999555814       0.1565522358    3      C     58
      1.6749373794       6.3396570000       2.5815829146    3      C     59
      6.1188131838       6.1505114688       3.7738113516    3      C     60
      1.5426995928       4.0605876006       1.6426424208    3      C     61
      1.3408747476       0.8552570214       2.7094202334    3      C     62
      1.4332845714       7.3777944798       0.7804490688    3      C     63
      5.8890192636       1.6418965788       3.2951299560    3      C     64
%endblock atomiccoordinatesandatomicspecies
#
# -- K-points Info follows
#
%block kgrid_monkhorst_pack
    10      0      0       0.0000000000
     0     10      0       0.0000000000
     0      0     10       0.0000000000
%endblock kgrid_monkhorst_pack
#
# -- Max wall-clock time block
#
maxwalltime 7200000
