atomiccoordinatesformat Ang
cdfsave True
dminitspinaf False
dmmixingweight 0.025
dmmixscf1 True
dmnumberpulay 10
dmtolerance 1e-05
electronictemperature 50.000 K
geometrymustconverge T
latticeconstant 1.0 Ang
maxscfiterations 1000
meshcutoff 400 Ry
noncollinearspin False
numberofatoms 64
numberofspecies 3
savehs True
solutionmethod diagon
spinorbit False
spinpolarized False
systemlabel aiida
systemname aiida
usetreetimer T
writedmhsnetcdf True
writeorbmom True
xcauthors PBEsol
xcfunctional GGA
xmlwrite T
#
# -- Basis Set Info follows
#
PAO-BasisSize DZP
PAO-SplitNorm 0.15
PAO-EnergyShift 0.005 Ry
#
# -- Structural Info follows
#
%block chemicalspecieslabel
    1     5      B
    2     7      N
    3     6      C
%endblock chemicalspecieslabel
%block lattice-vectors
      7.7342300000       0.0000000000       0.0000000000
      0.0000000000       7.7342300000       0.0000000000
      0.0000000000       0.0000000000       7.7342300000
%endblock lattice-vectors
%block atomiccoordinatesandatomicspecies
      6.9288646301       1.9015377878       6.0295283657    1      B      1
      4.8856357487       7.2706402538       5.0860296480    1      B      2
      0.6104627739       6.2705269725       6.9160258083    1      B      3
      5.0185098201       7.5171301639       0.0049499072    1      B      4
      1.6621633693       3.2092413962       1.7007571770    1      B      5
      4.4909579918       2.6437918409       7.1557869383    1      B      6
      7.2882742982       3.0267135682       1.6765490371    1      B      7
      6.8229056791       7.3377733702       5.0631363272    1      B      8
      6.5303971005       5.5044514910       3.8463872636    1      B      9
      4.9779051126       6.0634042931       2.4870189988    1      B     10
      1.1038293056       1.0308955167       5.6575119027    1      B     11
      0.6629008533       7.5292729050       1.7206341481    1      B     12
      6.3332515778       1.2813298841       0.6942244848    1      B     13
      1.9031619761       3.4875963339       3.5367086944    1      B     14
      5.4482236389       4.0661167379       5.0854109096    1      B     15
      4.0060217708       3.5128872660       4.6408473692    1      B     16
      6.1171571916       0.4904275243       2.9176609252    1      B     17
      3.8139034976       1.7448422880       2.3589401500    1      B     18
      3.1019676261       0.6357537060       4.5783547908    1      B     19
      3.0164270423       7.4308161571       1.8231900379    1      B     20
      3.3140402127       5.5681815462       3.6050792876    1      B     21
      4.9643702101       1.4826518910       4.9072142504    1      B     22
      1.2508570179       7.2069875409       5.9394245862    2      N     23
      3.3495403284       4.0967442887       3.3745218913    2      N     24
      2.3005467135       6.2476336517       2.6474269290    2      N     25
      0.4062791019       3.4921595296       2.9178156098    2      N     26
      6.3661993976       5.7234848846       1.7513390412    2      N     27
      3.6098745102       6.3097395186       4.8318828502    2      N     28
      4.9277099599       1.3298235062       0.0824468918    2      N     29
      3.2196052644       2.1744014222       5.1578033024    2      N     30
      7.0365251117       0.4589492082       1.7190099598    2      N     31
      5.1159611181       4.0453116592       7.4580406467    2      N     32
      7.3991058141       1.5029929159       7.3753617280    2      N     33
      2.8448044786       0.7710253887       2.9997211055    2      N     34
      5.5839593754       6.9791371251       3.6861340180    2      N     35
      4.4395253623       2.9117829104       1.6883824090    2      N     36
      5.1736584739       1.6733006605       3.3474520863    2      N     37
      5.6007426545       2.6127002363       5.8812631766    2      N     38
      7.4365394873       3.7796408587       6.7146264591    2      N     39
      6.5860835565       5.1371529083       5.4136516308    2      N     40
      4.4228194255       6.9882635165       1.3077809507    2      N     41
      0.8398600357       6.4378183674       0.6786013402    2      N     42
      5.1383130428       6.6719335095       6.5327947118    2      N     43
      2.4362824500       4.1901737871       0.7518444983    2      N     44
      7.2850259216       1.1042933594       4.8112324561    2      N     45
      6.1040090006       4.5928178009       0.7350612192    3      C     46
      1.4482345675       1.3433584087       2.5627371105    3      C     47
      2.1064175405       3.8828928292       6.9881861742    3      C     48
      0.9288036807       3.8194721432       5.4141930269    3      C     49
      2.4098313834       1.1742107986       0.5714822547    3      C     50
      0.8670845253       6.1702913517       3.5754571867    3      C     51
      2.3297821029       5.7792486829       0.7225317666    3      C     52
      6.8711672743       5.8294438356       6.8174143758    3      C     53
      4.1984494132       5.2322065950       6.7703902574    3      C     54
      0.0514326295       5.2441173092       2.3136175622    3      C     55
      3.9273646517       4.3276883965       1.3043005472    3      C     56
      7.3190565336       3.4561953601       4.2778026130    3      C     57
      2.6246109505       6.4434643553       6.0365665150    3      C     58
      0.3314117555       1.4764645070       3.5737556561    3      C     59
      3.2059930196       0.2088242100       7.2042032181    3      C     60
      2.3594042038       2.4513641985       6.3868497917    3      C     61
      0.2273863620       3.8326203342       0.4695451033    3      C     62
      1.0953989949       1.8643361415       0.0292353894    3      C     63
      5.8784788538       2.8829342325       2.2335682817    3      C     64
%endblock atomiccoordinatesandatomicspecies
#
# -- K-points Info follows
#
%block kgrid_monkhorst_pack
     6      0      0       0.0000000000
     0      6      0       0.0000000000
     0      0      6       0.0000000000
%endblock kgrid_monkhorst_pack
#
# -- Max wall-clock time block
#
maxwalltime 7200000
