atomiccoordinatesformat Ang
cdfsave True
dminitspinaf False
dmmixingweight 0.025
dmmixscf1 True
dmnumberpulay 10
dmtolerance 1e-05
electronictemperature 50.000 K
geometrymustconverge T
latticeconstant 1.0 Ang
maxscfiterations 1000
meshcutoff 400 Ry
noncollinearspin False
numberofatoms 64
numberofspecies 2
savehs True
solutionmethod diagon
spinorbit False
spinpolarized False
systemlabel aiida
systemname aiida
usetreetimer T
writedmhsnetcdf True
writeorbmom True
xcauthors PBEsol
xcfunctional GGA
xmlwrite T
#
# -- Basis Set Info follows
#
PAO-BasisSize DZP
PAO-SplitNorm 0.15
PAO-EnergyShift 0.005 Ry
#
# -- Structural Info follows
#
%block chemicalspecieslabel
    1     5      B
    2     7      N
%endblock chemicalspecieslabel
%block lattice-vectors
      9.1605600000       0.0000000000       0.0000000000
      0.0000000000       9.1605600000       0.0000000000
      0.0000000000       0.0000000000       9.1605600000
%endblock lattice-vectors
%block atomiccoordinatesandatomicspecies
      4.8720438360       5.0317123968       0.1334693592    1      B      1
      5.5078783056       5.4685795032       5.3882413920    1      B      2
      3.7528066152       7.4092441392       5.1297303888    1      B      3
      2.5446203568       5.0717440440       4.1071370760    1      B      4
      3.1013991936       7.9243424280       8.9047971648    1      B      5
      0.3967438536       5.2708946184       8.1784563624    1      B      6
      8.4990759624       3.7133246016       0.8459777160    1      B      7
      3.4341107328       6.1005665376       7.1187627816    1      B      8
      4.4767656720       7.4648487384       2.3727682512    1      B      9
      5.2116257952       2.4635494008       4.9873752864    1      B     10
      9.1408647960       3.9443539248       6.0996504816    1      B     11
      2.9376999864       3.6816290640       8.6226519168    1      B     12
      1.7333611632       8.2172971368       1.6293888072    1      B     13
      7.5991425480       1.2495919896       3.9918056256    1      B     14
      2.2473601848       1.8810293904       5.6046138192    1      B     15
      6.4848520296       0.8021902392       6.2340358968    1      B     16
      8.8615593216       7.3042641216       2.8830114432    1      B     17
      9.0594274176       8.1612345096       5.3352017496    1      B     18
      7.4190459384       2.1399984216       1.8264324528    1      B     19
      3.2042722824       1.3701449592       3.2178299112    1      B     20
      8.8357265424       1.4558878008       5.8860262224    1      B     21
      6.4844856072       6.1270405560       2.1334028184    1      B     22
      4.1332446720       0.6202615176       7.1725352688    1      B     23
      6.9032148048       8.4880832904       2.0966689728    1      B     24
      4.5527983200       2.9209361616       1.7754081336    1      B     25
      0.8741006352       0.5821535880       3.5834278608    1      B     26
      5.0731181280       9.1015659936       4.3940458152    1      B     27
      1.5024234456       1.0334943792       8.9066292768    1      B     28
      7.6195705968       0.9517821840       8.3840193288    1      B     29
      8.3484763560       5.0627666952       4.3611594048    1      B     30
      5.4296471232       8.7169140792       0.0033894072    1      B     31
      0.1375000056       7.5913560720       8.1357681528    1      B     32
      0.6726599208       3.7116757008       8.9121256128    2      N     33
      0.0148401072       0.5132661768       8.7415559856    2      N     34
      6.0774819264       2.9090274336       2.0985010848    2      N     35
      4.1294888424       3.7430048160       0.5043804336    2      N     36
      5.3518739688       1.6423051968       7.1142741072    2      N     37
      3.6279481824       5.7586944384       5.5162144152    2      N     38
      2.9737009872       2.5186959720       2.1299218056    2      N     39
      5.8682547360       3.8624585184       5.3142240672    2      N     40
      4.1003582616       9.0287395416       8.5055799600    2      N     41
      8.9011329408       0.4590356616       4.7035811376    2      N     42
      4.7523153168       7.6871755296       3.8635577856    2      N     43
      1.5978764808       7.5624087024       8.7501669120    2      N     44
      2.0045137392       1.2757911912       4.2011244216    2      N     45
      6.8157314568       8.7480599832       8.4966942168    2      N     46
      2.3713941672       2.2238175456       8.2973604312    2      N     47
      6.5681215200       0.1059876792       4.8055381704    2      N     48
      8.6578284672       6.8986345248       4.4196037776    2      N     49
      3.0394738080       7.2984013632       1.8110427120    2      N     50
      4.8468522960       5.8706364816       7.9109680104    2      N     51
      1.9031063400       5.7118839768       7.3663727184    2      N     52
      0.8328781152       2.4902066304       6.0053883192    2      N     53
      5.3977683744       8.3627668296       1.4754913992    2      N     54
      7.6294640016       0.7160809752       2.4551216856    2      N     55
      6.4472021280       5.2078699656       0.5720769720    2      N     56
      7.7374670040       1.5720437016       6.9596438544    2      N     57
      2.6854181640       0.9398734560       6.7535312544    2      N     58
      1.0470520080       4.9525651584       5.0480181936    2      N     59
      0.6317122176       8.5831699032       2.6469438120    2      N     60
      8.5024653696       7.7163061104       6.7581115344    2      N     61
      4.3840608048       1.3388158440       4.2897986424    2      N     62
      8.1874337112       6.6494672928       1.5550966656    2      N     63
      7.7700785976       2.0997835632       0.2499916824    2      N     64
%endblock atomiccoordinatesandatomicspecies
#
# -- K-points Info follows
#
%block kgrid_monkhorst_pack
     6      0      0       0.0000000000
     0      6      0       0.0000000000
     0      0      6       0.0000000000
%endblock kgrid_monkhorst_pack
#
# -- Max wall-clock time block
#
maxwalltime 7200000
