atomiccoordinatesformat Ang
cdfsave True
dminitspinaf False
dmmixingweight 0.025
dmmixscf1 True
dmnumberpulay 10
dmtolerance 1e-05
electronictemperature 50.000 K
geometrymustconverge T
latticeconstant 1.0 Ang
maxscfiterations 1000
meshcutoff 400 Ry
noncollinearspin False
numberofatoms 8
numberofspecies 1
savehs True
solutionmethod diagon
spinorbit False
spinpolarized False
systemlabel aiida
systemname aiida
usetreetimer T
writedmhsnetcdf True
writeorbmom True
xcauthors PBEsol
xcfunctional GGA
xmlwrite T
#
# -- Basis Set Info follows
#
PAO-BasisSize DZP
PAO-SplitNorm 0.15
PAO-EnergyShift 0.005 Ry
#
# -- Structural Info follows
#
%block chemicalspecieslabel
    1     6      C
%endblock chemicalspecieslabel
%block lattice-vectors
      3.6148500000       0.0000000000       0.0000000000
      0.0000000000       3.4545600000       0.0000000000
      0.0000000000       0.0000000000       3.7156900000
%endblock lattice-vectors
%block atomiccoordinatesandatomicspecies
      3.5771832630       3.4169052960       3.6780500603    1      C      1
      3.5853166755       1.7865602496       1.7772516839    1      C      2
      1.7698305600       3.4169743872       1.7698203039    1      C      3
      1.7698305600       1.7698056336       3.6781243741    1      C      4
      0.8660457630       0.8660581920       0.8660530252    1      C      5
      0.8801075295       2.6860931280       2.6802386677    1      C      6
      2.6735069115       0.8661272832       2.6735132688    1      C      7
      2.6735069115       2.6735185296       0.8661273390    1      C      8
%endblock atomiccoordinatesandatomicspecies
#
# -- K-points Info follows
#
%block kgrid_monkhorst_pack
     6      0      0       0.0000000000
     0      6      0       0.0000000000
     0      0      6       0.0000000000
%endblock kgrid_monkhorst_pack
#
# -- Max wall-clock time block
#
maxwalltime 7200000
