atomiccoordinatesformat Ang
cdfsave True
dminitspinaf False
dmmixingweight 0.025
dmmixscf1 True
dmnumberpulay 10
dmtolerance 1e-05
electronictemperature 50.000 K
geometrymustconverge T
latticeconstant 1.0 Ang
maxscfiterations 1000
meshcutoff 600 Ry
noncollinearspin False
numberofatoms 64
numberofspecies 3
savehs True
solutionmethod diagon
spinorbit False
spinpolarized False
systemlabel aiida
systemname aiida
usetreetimer T
writedmhsnetcdf True
writeorbmom True
xcauthors PBEsol
xcfunctional GGA
xmlwrite T
#
# -- Basis Set Info follows
#
PAO-BasisSize DZP
PAO-SplitNorm 0.15
PAO-EnergyShift 0.005 Ry
#
# -- Structural Info follows
#
%block chemicalspecieslabel
    1     5      B
    2     7      N
    3     6      C
%endblock chemicalspecieslabel
%block lattice-vectors
      7.9033100000       0.0000000000       0.0000000000
      0.0000000000       7.9033100000       0.0000000000
      0.0000000000       0.0000000000       7.9033100000
%endblock lattice-vectors
%block atomiccoordinatesandatomicspecies
      0.2947934630       6.4204119447       2.0714575510    1      B      1
      0.0577731961       4.3661045764       1.4749947453    1      B      2
      3.9955974036       4.4519345230       4.2616228182    1      B      3
      1.9220849920       5.2779094511       6.2255953532    1      B      4
      1.9080171002       6.6872276903       7.7413711781    1      B      5
      0.0587215933       7.8582611330       6.4261023279    1      B      6
      1.5368776626       2.5362512121       2.3441217460    1      B      7
      6.1635543697       3.4772983338       2.4694682426    1      B      8
      3.1724676671       6.7332249545       2.7618907126    1      B      9
      2.4521599937       2.4688359778       4.6013861151    1      B     10
      6.2624247778       4.4776202805       4.4034872327    1      B     11
      1.7410991930       3.0796828077       6.5299518213    1      B     12
      5.3808105473       4.7263374462       7.4800087164    1      B     13
      5.6707829912       7.0969352807       0.1191028817    1      B     14
      4.0361413839       0.5880852971       3.4354107908    1      B     15
      1.8338840524       3.5180003803       0.6260211851    1      B     16
      0.6529714722       0.3638683924       4.4697169705    1      B     17
      6.5294776227       2.5108815870       6.2767297689    1      B     18
      0.9385180625       5.6909364317       4.4201632168    1      B     19
      3.8442490171       2.7026158876       2.8348382639    1      B     20
      0.8085086130       0.4881874587       1.4774447714    1      B     21
      7.3581396762       5.5977564068       6.5633037895    1      B     22
      7.7171080164       6.9309657707       0.1277174896    2      N     23
      4.6316557924       4.2648631753       2.0993562353    2      N     24
      5.8221313777       0.8338782381       6.7227925853    2      N     25
      1.4308152424       7.3805060435       3.2611428053    2      N     26
      5.3320471246       3.6464291678       5.7952601237    2      N     27
      2.4131176423       0.6671183971       5.0936042619    2      N     28
      3.8428264213       6.2670086976       6.8009563212    2      N     29
      0.0270293202       3.9075545302       5.1486903326    2      N     30
      3.4220541969       4.3136265980       0.3013532103    2      N     31
      2.3014438720       4.3816740971       2.5082734947    2      N     32
      7.2973632223       6.6308770900       4.6763885270    2      N     33
      3.3647551994       2.1424292748       0.8021859650    2      N     34
      7.3505524986       5.2012473441       3.1090831209    2      N     35
      1.1691366483       1.6596160669       7.8155832590    2      N     36
      0.3808605089       1.8962411683       5.7800067354    2      N     37
      1.9608112110       5.9093048870       1.5092160776    2      N     38
      5.6573473642       5.8490816648       5.7968407857    2      N     39
      6.2365019210       5.4051527421       1.1495364395    2      N     40
      4.7510748065       5.8565898093       3.4795902937    2      N     41
      6.8508262073       7.5249785503       2.1598165568    2      N     42
      4.3684755694       1.7483702382       4.8807681236    2      N     43
      7.4459454503       3.4844903459       7.4221564872    2      N     44
      7.5710548476       2.5519787990       1.3927212882    2      N     45
      4.0091120637       0.4399772677       6.6763211225    3      C     46
      5.0739250200       1.0152592026       1.4666962698    3      C     47
      5.5623495780       7.2587950695       3.1566610471    3      C     48
      3.8733331979       2.3525782877       6.8168419743    3      C     49
      6.6318254872       1.4487557561       2.7042755827    3      C     50
      4.9039248219       7.3760011568       5.1871004192    3      C     51
      2.5319043916       0.9355938378       2.2117413035    3      C     52
      2.7562793625       6.6350658443       4.9268444209    3      C     53
      6.5762652179       0.6514698433       4.7430134303    3      C     54
      2.1361856599       0.4544403250       7.0709333908    3      C     55
      0.7393546505       5.0125953344       7.6856528426    3      C     56
      4.0914645539       5.9107274828       0.9996106488    3      C     57
      6.9212446994       1.1307265617       0.2531430193    3      C     58
      2.0532799380       4.2355418952       4.3027990633    3      C     59
      5.8977660544       2.4286871630       4.1339843617    3      C     60
      5.4114753901       2.8378415217       0.4146076426    3      C     61
      0.2610463293       2.4527922585       3.7215106128    3      C     62
      3.4816451543       4.1792703280       6.1314669311    3      C     63
      3.6046206579       7.7107063353       0.7391175512    3      C     64
%endblock atomiccoordinatesandatomicspecies
#
# -- K-points Info follows
#
%block kgrid_monkhorst_pack
    10      0      0       0.0000000000
     0     10      0       0.0000000000
     0      0     10       0.0000000000
%endblock kgrid_monkhorst_pack
#
# -- Max wall-clock time block
#
maxwalltime 7200000
