atomiccoordinatesformat Ang
cdfsave True
dminitspinaf False
dmmixingweight 0.025
dmmixscf1 True
dmnumberpulay 10
dmtolerance 1e-05
electronictemperature 50.000 K
geometrymustconverge T
latticeconstant 1.0 Ang
maxscfiterations 1000
meshcutoff 600 Ry
noncollinearspin False
numberofatoms 64
numberofspecies 3
savehs True
solutionmethod diagon
spinorbit False
spinpolarized False
systemlabel aiida
systemname aiida
usetreetimer T
writedmhsnetcdf True
writeorbmom True
xcauthors PBEsol
xcfunctional GGA
xmlwrite T
#
# -- Basis Set Info follows
#
PAO-BasisSize DZP
PAO-SplitNorm 0.15
PAO-EnergyShift 0.005 Ry
#
# -- Structural Info follows
#
%block chemicalspecieslabel
    1     5      B
    2     7      N
    3     6      C
%endblock chemicalspecieslabel
%block lattice-vectors
      8.7235200000       0.0000000000       0.0000000000
      0.0000000000       8.7235200000       0.0000000000
      0.0000000000       0.0000000000       8.7235200000
%endblock lattice-vectors
%block atomiccoordinatesandatomicspecies
      3.9284627616       5.9706387936       0.1193377536    1      B      1
      2.2893133536       3.6780977376       1.4618874816    1      B      2
      2.3297032512       8.1003117312       7.9358733792    1      B      3
      0.6187592736       1.7429592960       2.6230752288    1      B      4
      1.1383321248       6.5925385344       0.9089035488    1      B      5
      3.3274994688       3.6521888832       4.9638573504    1      B      6
      7.8129589824       4.8459153600       8.3177018496    1      B      7
      5.3609519808       2.4997246560       3.8286656928    1      B      8
      6.0351928416       1.6195214880       7.4504094912    1      B      9
      3.0614321088       1.5355139904       6.9980949792    1      B     10
      1.4283891648       3.8109569472       7.8004843488    1      B     11
      5.5361202624       5.1123316608       5.5415288448    1      B     12
      1.0786632480       7.6696315488       5.3967184128    1      B     13
      4.9658637600       8.5206981600       0.2881378656    1      B     14
      3.8421871488       3.4003408608       8.4779529120    1      B     15
      8.6223271680       1.0565055072       8.4707996256    1      B     16
      7.8350294880       7.2317980800       7.0510467456    1      B     17
      6.6675608064       6.7128358752       3.9718186560    1      B     18
      7.6820189472       3.3953684544       4.2745248000    1      B     19
      3.5726303808       8.2304666496       5.6154170592    1      B     20
      8.6976111456       1.7162653248       6.4219064832    1      B     21
      6.7350808512       1.8430180704       1.6716009024    1      B     22
      1.7827385472       2.8373248800       2.6179283520    2      N     23
      2.0605826592       4.0361982336       6.3700015392    2      N     24
      3.9434672160       0.5490583488       1.2624678144    2      N     25
      2.3434864128       2.9109513888       0.0758946240    2      N     26
      2.3355480096       5.8678757280       4.3512045408    2      N     27
      5.2095989088       7.1363627712       3.3426783936    2      N     28
      5.0606011872       6.9934715136       8.6769364032    2      N     29
      7.3043777664       6.1612477056       7.8907727808    2      N     30
      4.8087531648       3.9172094208       4.3662962304    2      N     31
      8.6512892544       6.7222572768       5.8791290688    2      N     32
      6.8655847104       2.2942857600       0.0742371552    2      N     33
      4.6467573984       4.7093922720       8.4922594848    2      N     34
      2.5716936960       6.4861115904       8.5037745312    2      N     35
      0.7599930624       5.1579556704       8.5436410176    2      N     36
      2.3146987968       7.6188606624       6.3007367904    2      N     37
      6.9473240928       5.1101507808       4.3690877568    2      N     38
      1.0096602048       7.9002814176       3.8681832384    2      N     39
      1.7898918336       5.0857249248       1.7974812960    2      N     40
      7.9990316640       3.0878643744       5.8270496544    2      N     41
      3.9292478784       1.0472585760       5.6274555168    2      N     42
      5.4617086368       2.6126070048       2.2480511040    2      N     43
      4.5158173632       2.2497085728       7.6879509408    2      N     44
      7.7416878240       7.9801888608       2.6476755552    2      N     45
      5.4960793056       4.1567572800       0.9429252768    3      C     46
      8.4038029920       4.1659169760       6.9224620608    3      C     47
      8.4557079360       8.4999361824       7.6032455616    3      C     48
      8.5452112512       5.5907294976       4.7841528384    3      C     49
      7.6354353504       8.4297118464       4.2678076896    3      C     50
      3.2048467776       0.5128557408       2.6126942400    3      C     51
      1.9750921632       3.0114463392       4.1888598336    3      C     52
      4.6512936288       1.1166105600       4.1850214848    3      C     53
      4.0072361472       7.3891703808       4.3420448448    3      C     54
      7.9003686528       0.6428361888       5.4475765344    3      C     55
      2.1258345888       6.1679648160       2.8517186880    3      C     56
      0.3505110336       0.8593539552       1.2384781344    3      C     57
      6.7233040992       4.6720556064       1.7221973184    3      C     58
      2.7132764256       5.4787195008       5.8680501984    3      C     59
      6.8281608096       0.2338775712       1.7385103008    3      C     60
      7.9082198208       3.5120891520       0.4169842560    3      C     61
      6.5979471168       6.8193500544       0.4611252672    3      C     62
      7.8485509440       4.7948827680       2.8086244992    3      C     63
      1.7782895520       0.2478352032       3.0944942496    3      C     64
%endblock atomiccoordinatesandatomicspecies
#
# -- K-points Info follows
#
%block kgrid_monkhorst_pack
     4      0      0       0.0000000000
     0      4      0       0.0000000000
     0      0      4       0.0000000000
%endblock kgrid_monkhorst_pack
#
# -- Max wall-clock time block
#
maxwalltime 7200000
