atomiccoordinatesformat Ang
cdfsave True
dminitspinaf False
dmmixingweight 0.025
dmmixscf1 True
dmnumberpulay 10
dmtolerance 1e-05
electronictemperature 50.000 K
geometrymustconverge T
latticeconstant 1.0 Ang
maxscfiterations 1000
meshcutoff 600 Ry
noncollinearspin False
numberofatoms 64
numberofspecies 3
savehs True
solutionmethod diagon
spinorbit False
spinpolarized False
systemlabel aiida
systemname aiida
usetreetimer T
writedmhsnetcdf True
writeorbmom True
xcauthors PBEsol
xcfunctional GGA
xmlwrite T
#
# -- Basis Set Info follows
#
PAO-BasisSize DZP
PAO-SplitNorm 0.15
PAO-EnergyShift 0.005 Ry
#
# -- Structural Info follows
#
%block chemicalspecieslabel
    1     5      B
    2     7      N
    3     6      C
%endblock chemicalspecieslabel
%block lattice-vectors
      8.8009800000       0.0000000000       0.0000000000
      0.0000000000       8.8009800000       0.0000000000
      0.0000000000       0.0000000000       8.8009800000
%endblock lattice-vectors
%block atomiccoordinatesandatomicspecies
      4.3017430044       0.7050465078       1.9941260484    1      B      1
      7.1302899666       7.8772291392       8.1520837446    1      B      2
      1.6315256724       4.8009345900       4.0637645052    1      B      3
      3.2468575416       2.5035267708       0.3553835724    1      B      4
      5.9682085674       1.8321880164       3.3236020872    1      B      5
      4.9020578502       1.6207004670       5.3908642794    1      B      6
      1.3279798722       7.2992687826       5.5433852628    1      B      7
      6.8869428696       1.1362945278       1.0213537290    1      B      8
      4.1367246294       5.0081096592       8.2706329452    1      B      9
      4.9743138960       8.5649377164       7.1177045652    1      B     10
      0.9733003782       2.3905221876       4.5534510324    1      B     11
      3.1452062226       6.4990836810       5.1416205258    1      B     12
      1.8049049784       6.6689425950       8.6147512632    1      B     13
      2.8631348136       0.3648006210       4.8124638738    1      B     14
      2.5010624964       7.7229479598       1.9657868928    1      B     15
      4.9239722904       7.3595554956       0.6314703150    1      B     16
      0.5883455130       6.0432809268       2.0369868210    1      B     17
      7.0700032536       7.7548075074       2.1160196214    1      B     18
      2.0411232816       1.6445511228       2.4593458512    1      B     19
      7.3485542706       5.4102264354       7.5900531618    1      B     20
      6.8641483314       5.2895649996       2.5573007586    1      B     21
      6.4862342502       3.4113478578       3.2637554232    1      B     22
      5.0388250794       7.9976265456       3.7273910496    1      B     23
      0.4628435382       8.7931471278       0.7611967602    1      B     24
      2.0140162632       1.1188685874       7.3242635658    1      B     25
      6.1715112054       2.3964188442       7.3077177234    1      B     26
      4.2051962538       5.8616286996       2.7726607392    1      B     27
      5.7836520168       3.5967845064       0.5369477898    1      B     28
      7.7922996822       6.4201388904       2.2433698020    2      N     29
      5.4891712260       1.0931697258       6.6758073594    2      N     30
      6.5862133830       8.4094243998       3.4448795916    2      N     31
      1.0132568274       0.2823354384       8.1405544608    2      N     32
      8.2779377586       1.6931325324       4.1926988622    2      N     33
      1.1394628806       7.4509976778       1.0895613240    2      N     34
      8.0043152904       6.8636202726       7.5285343116    2      N     35
      7.7190755286       0.4352084610       7.5572255064    2      N     36
      4.9315411332       5.9863385862       1.3092337848    2      N     37
      0.7543319958       1.3038651870       1.6405026720    2      N     38
      3.5317452642       4.5580275420       3.4257814650    2      N     39
      5.7220451568       1.1367345768       1.9944780876    2      N     40
      5.6533095030       7.7940598782       8.2394774760    2      N     41
      7.8181745634       8.7691204524       1.1970212898    2      N     42
      2.1369659538       0.1787479038       6.1350751482    2      N     43
      3.3417321060       1.8705602892       1.7408338440    2      N     44
      4.3429315908       0.4257914124       4.5318006216    2      N     45
      4.2254385078       3.6865545024       0.4265835006    2      N     46
      3.8292183882       7.6006143378       6.6332986260    2      N     47
      5.3988731712       2.8203620508       4.5853985898    2      N     48
      1.3898507616       3.2156140626       2.9430477120    2      N     49
      8.5336942374       3.0853595586       0.1827083448    2      N     50
      6.4443415854       3.9713542152       1.8363244770    2      N     51
      3.8587016712       8.2554952596       1.2390899742    2      N     52
      1.8522542508       0.9318477624       3.8559733674    2      N     53
      2.5477076904       5.3560123986       7.8591871302    2      N     54
      6.2949889548       2.1766583736       0.1084280736    2      N     55
      2.9369750358       2.2754053692       7.6333539834    2      N     56
      7.4955306366       2.7944871696       4.9097147028    3      C     57
      7.5169170180       4.3194329742       5.0249195310    3      C     58
      8.4833526318       1.8067531842       8.0205971034    3      C     59
      8.2962437970       4.4835712512       8.4141769290    3      C     60
      7.2496312554       5.4219317388       5.9761294494    3      C     61
      7.7638725168       0.1695068748       4.3879045986    3      C     62
      4.1427092958       3.9807712638       4.9153473300    3      C     63
      0.6346386678       6.6809999376       6.8811342228    3      C     64
%endblock atomiccoordinatesandatomicspecies
#
# -- K-points Info follows
#
%block kgrid_monkhorst_pack
     6      0      0       0.0000000000
     0      6      0       0.0000000000
     0      0      6       0.0000000000
%endblock kgrid_monkhorst_pack
#
# -- Max wall-clock time block
#
maxwalltime 7200000
