atomiccoordinatesformat Ang
cdfsave True
dminitspinaf False
dmmixingweight 0.025
dmmixscf1 True
dmnumberpulay 10
dmtolerance 1e-05
electronictemperature 50.000 K
geometrymustconverge T
latticeconstant 1.0 Ang
maxscfiterations 1000
meshcutoff 400 Ry
noncollinearspin False
numberofatoms 64
numberofspecies 3
savehs True
solutionmethod diagon
spinorbit False
spinpolarized False
systemlabel aiida
systemname aiida
usetreetimer T
writedmhsnetcdf True
writeorbmom True
xcauthors PBEsol
xcfunctional GGA
xmlwrite T
#
# -- Basis Set Info follows
#
PAO-BasisSize DZP
PAO-SplitNorm 0.15
PAO-EnergyShift 0.005 Ry
#
# -- Structural Info follows
#
%block chemicalspecieslabel
    1     5      B
    2     7      N
    3     6      C
%endblock chemicalspecieslabel
%block lattice-vectors
      7.2683200000       0.0000000000       0.0000000000
      0.0000000000       7.2683200000       0.0000000000
      0.0000000000       0.0000000000       7.2683200000
%endblock lattice-vectors
%block atomiccoordinatesandatomicspecies
      4.0841416912       2.4615619344       5.7837656400    1      B      1
      1.0424951376       1.5872557216       6.2099799248    1      B      2
      5.3497015696       1.1640214480       7.0302098368    1      B      3
      1.8357595824       5.3231722016       3.1768373056    1      B      4
      3.8726335792       5.6900043120       5.1580359712    1      B      5
      0.2533009520       3.2260438320       6.2769211520    1      B      6
      4.4418157184       6.8165939120       3.4027366912    1      B      7
      0.1517625216       2.3451234480       0.9524406528    1      B      8
      4.6451833120       4.3968975008       6.7101857072    1      B      9
      2.5378792944       1.8962320048       2.3288424112    1      B     10
      6.6779870496       5.0635478112       5.7361581440    1      B     11
      2.6966920864       0.9142092896       5.6549710096    1      B     12
      1.4479220272       0.0508782400       2.9832819440    1      B     13
      3.8652925760       6.1961701168       0.8854267424    1      B     14
      7.1844435872       6.3379023568       0.5579889264    1      B     15
      1.8743543616       0.6152632880       0.7700058208    1      B     16
      5.3599499008       3.0373582448       2.8945357568    1      B     17
      4.5486600224       6.8592589504       6.5248435472    1      B     18
      6.3073027296       3.4751291584       4.6470730752    1      B     19
      1.0499088240       6.7458731584       4.9065520992    1      B     20
      6.5376357904       7.0925720224       3.1782182864    1      B     21
      0.7858507584       4.0517249840       4.2763160720    1      B     22
      2.3890967840       4.3003015280       1.0877767712    1      B     23
      0.9081765840       2.2050629216       4.2195504928    1      B     24
      1.4470498288       5.0329481840       6.0021059728    1      B     25
      4.4173214800       0.9658870448       1.7368377472    1      B     26
      5.7967032496       1.6432217856       4.8320518192    1      B     27
      3.7262496144       3.9626153808       3.2663830080    1      B     28
      3.2280062784       3.3307803232       7.0891559120    2      N     29
      2.1229309056       3.0174430480       5.5976239648    2      N     30
      4.6904649456       4.1007861440       5.0397804048    2      N     31
      5.7054858336       6.3349223456       4.9170184800    2      N     32
      7.0010638736       2.6703807680       3.0300899248    2      N     33
      4.5871094352       4.3062615504       1.3346816016    2      N     34
      1.8416469216       2.3374917120       0.6779162064    2      N     35
      2.7509864368       6.5367635920       4.2802409648    2      N     36
      3.0768979056       5.3898953792       6.7266847936    2      N     37
      1.7756505760       6.1638987760       0.9400845088    2      N     38
      0.0348879360       0.7106236464       0.1490732432    2      N     39
      0.7333734880       4.5354316800       0.2423257888    2      N     40
      0.1553966816       5.5406403360       4.0900290304    2      N     41
      0.0623621856       0.7943546928       4.6321003360    2      N     42
      0.3877648720       1.0142940560       2.1796964848    2      N     43
      2.0671828912       3.4244689680       2.8930820928    2      N     44
      2.3124160080       1.2974678032       3.9502592368    2      N     45
      5.6022756896       6.8606399312       1.5224949904    2      N     46
      3.0135908384       0.1306843936       2.1793330688    2      N     47
      2.6853535072       4.4117248736       4.7693989008    2      N     48
      1.7008595632       6.8597677328       6.4507066832    2      N     49
      4.2940507728       0.5936036944       4.9854133712    2      N     50
      3.4472188096       1.0576859264       7.2529838448    2      N     51
      5.7704646144       1.9114954768       1.2635247488    2      N     52
      3.4141479536       5.3840080400       2.4238393536    2      N     53
      3.7999503792       2.3452688144       3.9240206016    2      N     54
      5.3627845456       1.1643121808       3.2269160304    2      N     55
      5.3711431136       5.0845532560       3.3948142224    2      N     56
      5.8097135424       2.7482244752       6.4728023760    2      N     57
      5.7391381552       5.6226996688       7.1696162144    3      C     58
      6.2810640944       4.8782056512       2.1124645248    3      C     59
      6.5574783040       0.1019745296       6.0369212256    3      C     60
      0.5768138752       3.8311314720       2.1062864528    3      C     61
      3.8791023840       2.7352868656       1.3867227728    3      C     62
      0.3787521552       5.9501374848       2.1764257408    3      C     63
      6.2373814912       3.7883937504       0.6659961616    3      C     64
%endblock atomiccoordinatesandatomicspecies
#
# -- K-points Info follows
#
%block kgrid_monkhorst_pack
    10      0      0       0.0000000000
     0     10      0       0.0000000000
     0      0     10       0.0000000000
%endblock kgrid_monkhorst_pack
#
# -- Max wall-clock time block
#
maxwalltime 7200000
