atomiccoordinatesformat Ang
cdfsave True
dminitspinaf False
dmmixingweight 0.025
dmmixscf1 True
dmnumberpulay 10
dmtolerance 1e-05
electronictemperature 50.000 K
geometrymustconverge T
latticeconstant 1.0 Ang
maxscfiterations 1000
meshcutoff 400 Ry
noncollinearspin False
numberofatoms 64
numberofspecies 3
savehs True
solutionmethod diagon
spinorbit False
spinpolarized False
systemlabel aiida
systemname aiida
usetreetimer T
writedmhsnetcdf True
writeorbmom True
xcauthors PBEsol
xcfunctional GGA
xmlwrite T
#
# -- Basis Set Info follows
#
PAO-BasisSize DZP
PAO-SplitNorm 0.15
PAO-EnergyShift 0.005 Ry
#
# -- Structural Info follows
#
%block chemicalspecieslabel
    1     5      B
    2     7      N
    3     6      C
%endblock chemicalspecieslabel
%block lattice-vectors
      8.4178000000       0.0000000000       0.0000000000
      0.0000000000       8.4178000000       0.0000000000
      0.0000000000       0.0000000000       8.4178000000
%endblock lattice-vectors
%block atomiccoordinatesandatomicspecies
      2.8953864880       3.9698344800       0.3082598360    1      B      1
      2.6798908080       3.4294117200       5.9610650700    1      B      2
      2.4264308500       6.0621628480       0.2619619360    1      B      3
      4.0449212560       7.7461437380       0.0867875180    1      B      4
      0.7630735700       2.8661767220       3.9656255800    1      B      5
      5.6445557900       0.9794952080       0.7149237540    1      B      6
      1.1337934820       2.6463037860       8.1979270640    1      B      7
      3.6427187720       0.8589523120       6.2297612460    1      B      8
      7.2457055280       4.2827241060       3.3184651160    1      B      9
      7.9642489360       0.9954890280       1.7820482600    1      B     10
      7.8829329880       7.5352778480       3.7875049320    1      B     11
      4.7681786320       7.0725513820       2.1158140300    1      B     12
      2.6121275180       5.7619841000       6.1508022820    1      B     13
      5.7867324320       0.0964679880       4.6437635480    1      B     14
      6.6262396260       3.3139195040       7.7396620320    1      B     15
      4.8542927260       2.1091639680       4.3202674940    1      B     16
      0.2937812200       7.0823160300       1.7379389880    1      B     17
      0.2623828260       0.0479814600       7.1933468120    1      B     18
      2.8483309860       6.4695001900       4.0422275600    1      B     19
      5.7847963380       6.2579608760       0.2198729360    1      B     20
      4.7579089160       3.0026292600       0.1533723160    1      B     21
      3.2507860040       0.7413556460       1.8406361480    1      B     22
      0.5438740580       4.4858456200       5.3998503440    1      B     23
      6.6078888220       7.3082497820       6.6248927780    1      B     24
      7.9520431260       4.9684380940       0.6602922320    1      B     25
      1.1053413180       0.4942932160       3.3321019520    1      B     26
      4.4055398080       5.1404979260       7.5647401480    1      B     27
      0.7329378460       5.7033962120       3.6343009720    1      B     28
      0.3716458700       6.6326371540       7.9959840420    2      N     29
      4.4867715780       7.2244926720       6.2728603820    2      N     30
      5.5557480000       0.6404262240       7.2086672080    2      N     31
      8.2097961620       0.3745921000       5.3304876720    2      N     32
      4.5206953120       2.8079255460       6.3836386300    2      N     33
      1.6099884280       1.6863378740       6.4309466660    2      N     34
      0.5664337620       6.4065350460       5.7009550500    2      N     35
      1.0595484860       4.4770911080       7.4539619000    2      N     36
      7.7007717960       1.5146989320       8.1108028340    2      N     37
      3.0912686940       2.7613751120       2.1967932660    2      N     38
      3.3083637560       1.5993820000       8.3405245960    2      N     39
      1.1958326680       4.5802091580       2.0589097020    2      N     40
      7.2400656020       3.2405162880       1.4813644440    2      N     41
      5.4144131380       4.4959469800       1.3471847120    2      N     42
      2.0903922740       8.2243589560       5.1823343920    2      N     43
      2.6439468020       2.0265853500       4.2067113720    2      N     44
      6.3408762060       0.0408263300       2.7037973600    2      N     45
      2.1825671840       7.1216271560       2.0809643380    2      N     46
      6.8220376540       6.0732743440       2.2917460500    2      N     47
      4.9727311720       6.5000568040       4.0184051860    2      N     48
      7.0215395140       7.8154222320       0.4269508160    2      N     49
      5.2362924900       2.0440943740       2.3484820220    2      N     50
      3.5333715500       5.3030456440       2.0143795400    2      N     51
      7.0009159040       5.1249249960       6.9978013180    2      N     52
      2.3291210820       7.5965594320       7.2941078780    2      N     53
      7.4342642480       1.9924090820       3.6069431220    2      N     54
      1.5046817500       0.3745921000       0.5494298060    2      N     55
      4.6012536580       5.0106954500       5.6475020200    2      N     56
      6.2228586500       3.7635142020       5.1037963180    3      C     57
      8.1870681020       2.8516981060       6.2176396140    3      C     58
      5.0036244980       4.1392847940       3.4059260580    3      C     59
      3.7354829280       0.0888919680       3.7096402820    3      C     60
      6.5838139140       1.7374339200       5.7850488720    3      C     61
      6.8036868500       5.9571087040       4.9237395760    3      C     62
      2.9506914340       4.3569691020       4.0295166820    3      C     63
      1.0621580040       2.5034537200       1.7261540680    3      C     64
%endblock atomiccoordinatesandatomicspecies
#
# -- K-points Info follows
#
%block kgrid_monkhorst_pack
     8      0      0       0.0000000000
     0      8      0       0.0000000000
     0      0      8       0.0000000000
%endblock kgrid_monkhorst_pack
#
# -- Max wall-clock time block
#
maxwalltime 7200000
