atomiccoordinatesformat Ang
cdfsave True
dminitspinaf False
dmmixingweight 0.025
dmmixscf1 True
dmnumberpulay 10
dmtolerance 1e-05
electronictemperature 50.000 K
geometrymustconverge T
latticeconstant 1.0 Ang
maxscfiterations 1000
meshcutoff 400 Ry
noncollinearspin False
numberofatoms 8
numberofspecies 2
savehs True
solutionmethod diagon
spinorbit False
spinpolarized False
systemlabel aiida
systemname aiida
usetreetimer T
writedmhsnetcdf True
writeorbmom True
xcauthors PBEsol
xcfunctional GGA
xmlwrite T
#
# -- Basis Set Info follows
#
PAO-BasisSize DZP
PAO-SplitNorm 0.15
PAO-EnergyShift 0.005 Ry
#
# -- Structural Info follows
#
%block chemicalspecieslabel
    1     7      N
    2     5      B
%endblock chemicalspecieslabel
%block lattice-vectors
      3.6444500000       0.0000000000       0.0000000000
      0.0000000000       3.5137800000       0.0000000000
      0.0000000000       0.0000000000       3.4759800000
%endblock lattice-vectors
%block atomiccoordinatesandatomicspecies
      3.6077503885       3.4889024376       3.4528647330    1      N      1
      3.6185379605       1.7943468948       1.7965602630    1      N      2
      1.7842498310       3.4757960382       1.7842552938    1      N      3
      1.7842498310       1.7842623462       3.4379875386    1      N      4
      0.8779480050       0.8922892932       0.8734442544    2      B      5
      0.8731737755       2.6953152246       2.6953444116    2      B      6
      2.6953258865       0.8731743300       2.6953444116    2      B      7
      2.6953258865       2.6953152246       0.8731661760    2      B      8
%endblock atomiccoordinatesandatomicspecies
#
# -- K-points Info follows
#
%block kgrid_monkhorst_pack
     6      0      0       0.0000000000
     0      6      0       0.0000000000
     0      0      6       0.0000000000
%endblock kgrid_monkhorst_pack
#
# -- Max wall-clock time block
#
maxwalltime 7200000
