atomiccoordinatesformat Ang
cdfsave True
dminitspinaf False
dmmixingweight 0.025
dmmixscf1 True
dmnumberpulay 10
dmtolerance 1e-05
electronictemperature 50.000 K
geometrymustconverge T
latticeconstant 1.0 Ang
maxscfiterations 1000
meshcutoff 400 Ry
noncollinearspin False
numberofatoms 8
numberofspecies 2
savehs True
solutionmethod diagon
spinorbit False
spinpolarized False
systemlabel aiida
systemname aiida
usetreetimer T
writedmhsnetcdf True
writeorbmom True
xcauthors PBEsol
xcfunctional GGA
xmlwrite T
#
# -- Basis Set Info follows
#
PAO-BasisSize DZP
PAO-SplitNorm 0.15
PAO-EnergyShift 0.005 Ry
#
# -- Structural Info follows
#
%block chemicalspecieslabel
    1     7      N
    2     5      B
%endblock chemicalspecieslabel
%block lattice-vectors
      3.6720100000       0.0000000000       0.0000000000
      0.0000000000       3.7362800000       0.0000000000
      0.0000000000       0.0000000000       3.7475300000
%endblock lattice-vectors
%block atomiccoordinatesandatomicspecies
      3.6496841792       3.7094161468       3.7123032180    1      N      1
      3.6502717008       1.8056320356       1.8057848058    1      N      2
      1.7977426558       3.6980204928       1.7977276163    1      N      3
      1.8036178718       1.8090694132       3.7246700670    1      N      4
      0.8795198352       0.8795203120       0.8795452910    2      B      5
      0.8797768759       2.7157151180       2.7157225651    2      B      6
      2.7315347988       0.8804543820       2.7279395129    2      B      7
      2.7188296442       2.7187788676       0.8992947741    2      B      8
%endblock atomiccoordinatesandatomicspecies
#
# -- K-points Info follows
#
%block kgrid_monkhorst_pack
     6      0      0       0.0000000000
     0      6      0       0.0000000000
     0      0      6       0.0000000000
%endblock kgrid_monkhorst_pack
#
# -- Max wall-clock time block
#
maxwalltime 7200000
