atomiccoordinatesformat Ang
cdfsave True
dminitspinaf False
dmmixingweight 0.025
dmmixscf1 True
dmnumberpulay 10
dmtolerance 1e-05
electronictemperature 50.000 K
geometrymustconverge T
latticeconstant 1.0 Ang
maxscfiterations 1000
meshcutoff 600 Ry
noncollinearspin False
numberofatoms 64
numberofspecies 2
savehs True
solutionmethod diagon
spinorbit False
spinpolarized False
systemlabel aiida
systemname aiida
usetreetimer T
writedmhsnetcdf True
writeorbmom True
xcauthors PBEsol
xcfunctional GGA
xmlwrite T
#
# -- Basis Set Info follows
#
PAO-BasisSize DZP
PAO-SplitNorm 0.15
PAO-EnergyShift 0.005 Ry
#
# -- Structural Info follows
#
%block chemicalspecieslabel
    1     5      B
    2     7      N
%endblock chemicalspecieslabel
%block lattice-vectors
      7.6711700000       0.0000000000       0.0000000000
      0.0000000000       7.6711700000       0.0000000000
      0.0000000000       0.0000000000       7.6711700000
%endblock lattice-vectors
%block atomiccoordinatesandatomicspecies
      2.8601957345       5.4473745287       3.6148854391    1      B      1
      0.3273288239       0.4730043422       6.8642396277    1      B      2
      4.0203834853       2.9913727415       4.4149884701    1      B      3
      3.7148407842       6.3449014187       7.3961585555    1      B      4
      5.0180958555       6.4058872202       3.0072520634    1      B      5
      6.0865364131       5.9900330945       0.8390725746    1      B      6
      5.6137622060       0.1685356049       6.9898933923    1      B      7
      0.8867872520       4.7502185991       1.7582321640    1      B      8
      0.6872601203       4.1156594167       4.1751876959    1      B      9
      4.5824501112       1.5242614790       1.8682367418    1      B     10
      6.1636316716       4.5244560660       3.6404304352    1      B     11
      2.6108827095       2.0596324333       6.2208585998    1      B     12
      1.2813155251       6.3970653747       0.5288504598    1      B     13
      2.6584439635       2.8451602413       3.1743301460    1      B     14
      1.6398660109       2.8674066343       0.7947332120    1      B     15
      7.2022313779       6.5005494580       4.9077844309    1      B     16
      0.3734325556       6.5510257566       2.6226963113    1      B     17
      3.8437931519       0.6542740893       5.0366600869    1      B     18
      5.2668718986       2.6660384218       6.7494022128    1      B     19
      5.2068066375       5.3763394945       5.0226218458    1      B     20
      0.0967334537       2.0223505471       3.2195133373    1      B     21
      1.5444366561       0.5230203706       4.8033030955    1      B     22
      2.8676367694       0.7230844842       0.6296496336    1      B     23
      7.4744044895       4.9284198782       6.5893816066    1      B     24
      3.0446873730       6.4280569015       5.5242396521    1      B     25
      4.1095991924       4.0764597380       0.9569017458    1      B     26
      6.8576424215       0.7049805230       1.4233855935    1      B     27
      2.5332504691       0.2770059487       2.6337427961    1      B     28
      2.4176459372       4.4332458547       6.3205070981    1      B     29
      7.6453181571       2.5126150218       5.9077214404    1      B     30
      5.9925645806       0.8828749553       4.3365891127    1      B     31
      6.8292590925       3.5153903642       0.9726276443    1      B     32
      3.0388572838       6.5870035439       1.3054029989    2      N     33
      5.2523733873       7.4794674617       1.1977764838    2      N     34
      1.6822875810       1.5476585475       7.4936591262    2      N     35
      4.0472325803       0.1794286663       3.4119062809    2      N     36
      2.1911929988       4.7727718389       0.3780352576    2      N     37
      0.8084646063       0.1357029973       1.4769303601    2      N     38
      4.9581073061       5.2314310932       7.5395327228    2      N     39
      5.3715066574       2.9520963511       0.8038619043    2      N     40
      7.0323149624       3.1843026670       4.3052140274    2      N     41
      3.1903628913       2.6642740527       1.5926883154    2      N     42
      6.0222520085       1.5778829573       2.7506514269    2      N     43
      4.9436855065       3.4790290184       3.1072841202    2      N     44
      5.5887541918       6.9315925003       5.5703433838    2      N     45
      3.6232470144       4.8123550761       4.9111597457    2      N     46
      6.6211402504       7.0432080238       3.3582848026    2      N     47
      1.7618376139       6.6644823609       3.5892637313    2      N     48
      5.1292511088       2.0137588367       5.1643083557    2      N     49
      7.5478175864       0.9216910755       5.1469715115    2      N     50
      0.2361953243       3.5430065762       7.3087072175    2      N     51
      1.6857396075       3.0960075003       5.3390576083    2      N     52
      0.7460212825       5.3798682327       5.2271352380    2      N     53
      0.3154385104       2.5773596966       1.7171914045    2      N     54
      3.9615456114       0.6543508010       7.0310875752    2      N     55
      5.8891572090       4.3286878076       6.1240484344    2      N     56
      4.0964814917       5.0858322866       2.2969017214    2      N     57
      7.4067447701       6.3552574982       7.3396220326    2      N     58
      3.7227420893       3.2298694168       6.7544651850    2      N     59
      1.8130043178       4.3111975400       3.0419257518    2      N     60
      6.7141148308       4.9211322667       2.0585584695    2      N     61
      1.7997331937       7.1939465143       6.2367379217    2      N     62
      1.6732356004       1.5455106199       3.4670619932    2      N     63
      6.7293804591       1.3464437584       7.4928152975    2      N     64
%endblock atomiccoordinatesandatomicspecies
#
# -- K-points Info follows
#
%block kgrid_monkhorst_pack
     8      0      0       0.0000000000
     0      8      0       0.0000000000
     0      0      8       0.0000000000
%endblock kgrid_monkhorst_pack
#
# -- Max wall-clock time block
#
maxwalltime 7200000
