atomiccoordinatesformat Ang
cdfsave True
dminitspinaf False
dmmixingweight 0.025
dmmixscf1 True
dmnumberpulay 10
dmtolerance 1e-05
electronictemperature 50.000 K
geometrymustconverge T
latticeconstant 1.0 Ang
maxscfiterations 1000
meshcutoff 400 Ry
noncollinearspin False
numberofatoms 64
numberofspecies 3
savehs True
solutionmethod diagon
spinorbit False
spinpolarized False
systemlabel aiida
systemname aiida
usetreetimer T
writedmhsnetcdf True
writeorbmom True
xcauthors PBEsol
xcfunctional GGA
xmlwrite T
#
# -- Basis Set Info follows
#
PAO-BasisSize DZP
PAO-SplitNorm 0.15
PAO-EnergyShift 0.005 Ry
#
# -- Structural Info follows
#
%block chemicalspecieslabel
    1     5      B
    2     7      N
    3     6      C
%endblock chemicalspecieslabel
%block lattice-vectors
      7.7117000000       0.0000000000       0.0000000000
      0.0000000000       7.3765200000       0.0000000000
      0.0000000000       0.0000000000       7.3537000000
%endblock lattice-vectors
%block atomiccoordinatesandatomicspecies
      3.8671090820       1.7570132988       0.3539335810    1      B      1
      5.2086364140       5.6012866968       3.2182732680    1      B      2
      0.7270590760       1.4576003520       1.9916025710    1      B      3
      6.5046647160       2.5634882304       0.8648686570    1      B      4
      2.1440839510       5.4821558988       6.8277633760    1      B      5
      1.3648937830       1.3335272856       0.1013339860    1      B      6
      4.6348088170       7.1994835200       6.9846913340    1      B      7
      3.0044783200       7.1646663456       4.4314131570    1      B      8
      5.5983086150       3.3098445240       3.5102151580    1      B      9
      5.4643563860       0.3303205656       1.6323007890    1      B     10
      0.2111463460       5.0162548956       5.1461927970    1      B     11
      4.9326346710       2.1341747664       5.1158955530    1      B     12
      1.7790120730       2.4651592188       3.6439054240    1      B     13
      6.7785071830       4.7298246240       1.1085702750    1      B     14
      0.0073261150       6.7199359548       3.6268448400    1      B     15
      3.8761317710       3.6105114792       1.5533220510    1      B     16
      1.4356100720       3.0573462444       0.6227113160    1      B     17
      0.3748657370       6.8535984972       0.9250219230    1      B     18
      3.4216041730       3.6383947248       5.5157897590    1      B     19
      6.8526166200       0.6887456724       6.2835895760    1      B     20
      5.1740108810       1.9465160976       1.7959206140    2      N     21
      4.3607349990       4.8215147676       0.0581677670    2      N     22
      1.1948507980       6.4712734656       2.4181907080    2      N     23
      3.8350284100       3.5643344640       3.7154569250    2      N     24
      3.1023397930       3.1544950128       7.1897124900    2      N     25
      6.9753868840       0.6763531188       2.7830077650    2      N     26
      7.2169173280       2.3087769948       5.9094333200    2      N     27
      3.3832770240       6.2262992364       6.1229112310    2      N     28
      5.3932545120       4.1050333800       2.0897744660    2      N     29
      0.0197419520       6.0179863116       6.8237188410    2      N     30
      6.8879362060       0.9630046860       0.4874767730    2      N     31
      1.7472398690       4.4436156480       5.6699968480    2      N     32
      4.6119050680       7.1313244752       3.0858331310    2      N     33
      7.5475950240       2.8727857140       2.2166993280    2      N     34
      5.2455754570       2.0303871300       6.6749534900    2      N     35
      2.9883608670       0.9022959264       6.3408748990    2      N     36
      4.7597383570       0.3173378904       5.0896428440    2      N     37
      0.8954826040       1.2222893640       4.3125038280    2      N     38
      1.3195489870       6.4571105472       4.9497754700    2      N     39
      7.0161817770       5.1577365492       3.3745393930    2      N     40
      2.2113299750       0.2873892192       2.8613246700    3      C     41
      3.1125963540       5.2245678204       2.0307977920    3      C     42
      7.6688229480       3.9400206276       7.1649305210    3      C     43
      1.1643895830       2.6991424332       5.9803965250    3      C     44
      2.8980568600       1.9569907560       5.0868484380    3      C     45
      5.5083130760       3.7957358964       6.9052713740    3      C     46
      2.8049766410       5.4478550808       3.6169908820    3      C     47
      6.4143607090       6.2639932536       1.5389087990    3      C     48
      1.8538926800       4.8805269276       1.0583445040    3      C     49
      0.9210854480       0.3627034884       5.8764152070    3      C     50
      2.5865812970       2.4844857012       2.1040406440    3      C     51
      4.2049586590       5.2055363988       5.0872896600    3      C     52
      7.5424281850       3.3637668852       4.2438938070    3      C     53
      6.3801978780       7.2689703384       4.8341753060    3      C     54
      2.1823339830       7.0530595980       0.3862163240    3      C     55
      6.0303951660       5.9966681688       6.8017312780    3      C     56
      0.5677353540       4.3810627584       2.0981576840    3      C     57
      3.0817495540       0.4976938044       1.4780201630    3      C     58
      6.4790618720       1.7397522420       3.9711450740    3      C     59
      4.1893039080       6.1084224468       1.2175521090    3      C     60
      3.9557936320       1.6111794984       3.3649795830    3      C     61
      5.7852402230       5.7063283416       5.2123760970    3      C     62
      1.5858339880       4.2623007864       3.4698433450    3      C     63
      6.0612419660       4.0562745828       5.3930565060    3      C     64
%endblock atomiccoordinatesandatomicspecies
#
# -- K-points Info follows
#
%block kgrid_monkhorst_pack
     8      0      0       0.0000000000
     0      8      0       0.0000000000
     0      0      8       0.0000000000
%endblock kgrid_monkhorst_pack
#
# -- Max wall-clock time block
#
maxwalltime 7200000
