atomiccoordinatesformat Ang
cdfsave True
dminitspinaf False
dmmixingweight 0.025
dmmixscf1 True
dmnumberpulay 10
dmtolerance 1e-05
electronictemperature 50.000 K
geometrymustconverge T
latticeconstant 1.0 Ang
maxscfiterations 1000
meshcutoff 400 Ry
noncollinearspin False
numberofatoms 64
numberofspecies 3
savehs True
solutionmethod diagon
spinorbit False
spinpolarized False
systemlabel aiida
systemname aiida
usetreetimer T
writedmhsnetcdf True
writeorbmom True
xcauthors PBEsol
xcfunctional GGA
xmlwrite T
#
# -- Basis Set Info follows
#
PAO-BasisSize DZP
PAO-SplitNorm 0.15
PAO-EnergyShift 0.005 Ry
#
# -- Structural Info follows
#
%block chemicalspecieslabel
    1     5      B
    2     7      N
    3     6      C
%endblock chemicalspecieslabel
%block lattice-vectors
      7.3289900000       0.0000000000       0.0000000000
      0.0000000000       7.4966200000       0.0000000000
      0.0000000000       0.0000000000       7.2753300000
%endblock lattice-vectors
%block atomiccoordinatesandatomicspecies
      0.7975406918       1.3142324522       2.1772152558    1      B      1
      5.7226219718       1.4727859652       5.8555493505    1      B      2
      0.8430537197       6.0422757200       4.2031036476    1      B      3
      6.2918646251       3.9349758380       5.3205215823    1      B      4
      4.9439167843       5.8920434552       6.4042547391    1      B      5
      4.0314575293       3.4530931044       5.8875608025    1      B      6
      1.4185260145       4.4637874128       4.9205966922    1      B      7
      5.8369542158       7.3874692128       1.3935167082    1      B      8
      4.7752767244       4.2394135762       0.3466694745    1      B      9
      5.8376138249       5.8637062316       3.4492339530    1      B     10
      1.4869787811       3.7060290632       2.3498588367    1      B     11
      2.4433386862       5.3711033314       0.1636221717    1      B     12
      7.0952685089       7.0666888430       6.6476145276    1      B     13
      3.6235259459       1.9956752102       2.8428351975    1      B     14
      1.7599103687       2.0158411180       4.4640697347    1      B     15
      0.9132654439       3.1448320900       7.0401185811    1      B     16
      6.8509932722       1.4811821796       4.2582506490    1      B     17
      4.2617343951       1.9369017094       0.6469223436    1      B     18
      4.6188760778       7.3763742152       3.8322073242    1      B     19
      4.0801953128       5.8143035058       1.9166856885    1      B     20
      5.3272229613       3.6120964146       2.2486589964    1      B     21
      2.9373859021       0.0459542806       5.7541312503    1      B     22
      1.3248615223       1.5310347026       7.0532141751    1      B     23
      0.3615390767       6.0237590686       1.7230164039    1      B     24
      2.5732083890       7.3220237202       1.1946091860    1      B     25
      3.4956350704       4.3661814204       3.5526891456    1      B     26
      1.9985422831       1.1657244100       1.2031940754    2      N     27
      1.6218321971       0.9652647912       5.6370711906    2      N     28
      5.5967832135       6.6022732340       4.8549732156    2      N     29
      5.1004640107       2.2422390420       2.8938352608    2      N     30
      0.0366449500       0.7618814906       0.1863939546    2      N     31
      3.0407979510       3.3401190410       2.3389458417    2      N     32
      5.9133955815       6.4893741368       0.1087661835    2      N     33
      4.1225568750       3.2948394562       1.2838047318    2      N     34
      3.9789086710       5.4304765618       0.4177494486    2      N     35
      1.5494950658       4.4767565654       6.5381208111    2      N     36
      4.8300975696       4.7853924108       2.9963446605    2      N     37
      3.2842669988       1.9982240610       4.3501380669    2      N     38
      1.3858387191       3.4321775346       3.9860078004    2      N     39
      6.4628499618       2.5828104886       5.1243786855    2      N     40
      7.2290225764       5.8113048578       3.1031465049    2      N     41
      3.7191692654       2.2528842424       6.6125474370    2      N     42
      1.6816367555       5.1887855330       1.5998450670    2      N     43
      0.8812377576       1.1379119498       3.6565081047    2      N     44
      3.6565064009       3.3585607262       4.6036105641    2      N     45
      5.1007571703       4.4133351602       6.1103314071    2      N     46
      6.1273287996       4.1267393776       0.9856617084    2      N     47
      3.4062213924       1.1019281738       1.5827480415    2      N     48
      0.4165065017       2.7772728114       1.8375300981    2      N     49
      3.2874917544       6.8897686110       4.4337316086    2      N     50
      2.4601953632       6.8084302840       7.0623083376    2      N     51
      4.9850324182       6.8800230050       2.4088617630    2      N     52
      6.9378418037       2.9809559768       0.6083630946    3      C     53
      6.8140551626       5.3731274188       0.6011605179    3      C     54
      4.0088109502       1.2728511098       5.6174277996    3      C     55
      7.2929313692       5.0698891398       5.2500963879    3      C     56
      0.0000000000       0.1671746260       1.5479719641    3      C     57
      6.1338516007       1.6884637226       0.1553282955    3      C     58
      6.5908874171       0.0852365694       5.2924388085    3      C     59
      2.5499022008       5.8316956642       3.7948848813    3      C     60
      0.7217589352       0.0772151860       4.7379859092    3      C     61
      2.5880129488       6.1050224294       2.2935477825    3      C     62
      5.5308955934       1.2328941252       3.5326092348    3      C     63
      0.2973371243       5.4470440920       6.6244062249    3      C     64
%endblock atomiccoordinatesandatomicspecies
#
# -- K-points Info follows
#
%block kgrid_monkhorst_pack
     4      0      0       0.0000000000
     0      4      0       0.0000000000
     0      0      4       0.0000000000
%endblock kgrid_monkhorst_pack
#
# -- Max wall-clock time block
#
maxwalltime 7200000
