atomiccoordinatesformat Ang
cdfsave True
dminitspinaf False
dmmixingweight 0.025
dmmixscf1 True
dmnumberpulay 10
dmtolerance 1e-05
electronictemperature 50.000 K
geometrymustconverge T
latticeconstant 1.0 Ang
maxscfiterations 1000
meshcutoff 400 Ry
noncollinearspin False
numberofatoms 64
numberofspecies 2
savehs True
solutionmethod diagon
spinorbit False
spinpolarized False
systemlabel aiida
systemname aiida
usetreetimer T
writedmhsnetcdf True
writeorbmom True
xcauthors PBEsol
xcfunctional GGA
xmlwrite T
#
# -- Basis Set Info follows
#
PAO-BasisSize DZP
PAO-SplitNorm 0.15
PAO-EnergyShift 0.005 Ry
#
# -- Structural Info follows
#
%block chemicalspecieslabel
    1     5      B
    2     6      C
%endblock chemicalspecieslabel
%block lattice-vectors
      8.2325000000       0.0000000000       0.0000000000
      0.0000000000       8.2325000000       0.0000000000
      0.0000000000       0.0000000000       8.2325000000
%endblock lattice-vectors
%block atomiccoordinatesandatomicspecies
      6.1733871000       2.0146574000       3.4292478750    1      B      1
      1.7662828750       1.1452230750       1.1789763250    1      B      2
      8.0710606750       1.8042347000       1.2890448500    1      B      3
      4.7776490500       2.1813655250       1.1769182000    1      B      4
      4.1826039500       2.8377427500       3.8510811750    1      B      5
      3.0593616500       2.8965228000       0.9742340500    1      B      6
      0.2869026250       2.7177129000       7.6016435250    1      B      7
      2.5091836750       2.2438502000       7.2981935750    1      B      8
      8.1502573250       0.7871916500       3.3317750750    1      B      9
      6.2745645250       2.2836955000       7.5714302500    1      B     10
      1.1626759750       1.3084735500       5.6041920500    1      B     11
      6.0601079000       3.4494175000       5.1427604250    1      B     12
      2.5696925500       3.3614944000       5.5128113000    1      B     13
      4.9120034500       0.6782756750       5.8965281250    1      B     14
      7.5361951500       0.4612669750       7.6049365250    1      B     15
      4.3936852500       6.9383510000       4.9166136500    1      B     16
      3.5494423750       6.4822705000       0.4974076500    1      B     17
      0.3478231250       6.8328926750       3.7387075500    1      B     18
      7.3619954500       5.5221963500       2.4029844250    1      B     19
      6.4889388250       3.4628364750       1.2570204250    1      B     20
      8.2185870750       4.7447190500       0.5539649250    1      B     21
      1.2818002500       5.5572668000       2.2950563500    1      B     22
      0.2631930250       7.6608352000       1.5693614750    1      B     23
      4.1070296000       4.1262113250       7.7453829750    1      B     24
      5.5848456750       4.2860864750       3.0847177500    1      B     25
      6.4507400250       7.6481571500       3.8336282750    1      B     26
      2.1163287750       0.0623200250       3.8263013500    1      B     27
      4.7108834750       6.4082603250       2.7365653250    1      B     28
      6.2454214750       7.2726728250       6.0501465750    1      B     29
      3.8041559250       4.8560224500       4.4702475000    1      B     30
      1.4546004250       4.3909685250       6.8894499500    1      B     31
      5.2438555250       5.1295884250       6.0267662750    1      B     32
      6.7698317250       4.3882518000       7.3936082500    1      B     33
      3.2040066750       1.3744158750       5.1064551000    2      C     34
      5.4591354000       0.4465308000       7.8368460500    2      C     35
      3.5682948000       4.4019177500       2.3128385500    2      C     36
      3.0496473000       1.6440302500       2.6539933500    2      C     37
      4.7246317500       0.6050064250       3.6469151750    2      C     38
      7.7862985000       3.3630585750       3.0504705500    2      C     39
      6.8248248250       1.2893741500       5.3973916500    2      C     40
      1.2893741500       2.2007119000       3.7048719750    2      C     41
      4.3451135000       0.0866882250       1.7513820500    2      C     42
      6.4497521250       0.8402089500       1.5929887500    2      C     43
      1.2673110500       3.2533193500       1.7227329500    2      C     44
      8.0802810750       3.0051094750       5.6176110250    2      C     45
      4.5393181750       2.6729281000       6.5976901500    2      C     46
      3.4038094500       0.3007332250       8.0423292500    2      C     47
      2.1989007500       4.9655147000       0.5759457000    2      C     48
      7.4379814250       6.5880581250       8.2308535000    2      C     49
      2.8970990750       6.5468133000       3.4316353000    2      C     50
      5.2700348750       5.1056318500       0.9843600250    2      C     51
      6.1842540000       7.1435049000       1.6827230000    2      C     52
      2.2012881750       7.4164122750       1.5983398750    2      C     53
      3.3078185000       5.6235384250       6.6100389000    2      C     54
      7.9348951250       5.8926588500       6.2945695000    2      C     55
      6.6402521750       5.6559744750       4.4522183250    2      C     56
      1.9054944500       4.1906718000       3.7145863250    2      C     57
      1.2059789250       0.4424145500       7.5245050000    2      C     58
      0.0229686750       7.9344835000       5.5151987250    2      C     59
      5.3610863250       6.4802947000       7.6880847750    2      C     60
      1.6866746000       6.2520074750       5.3556528750    2      C     61
      0.2148682500       4.6897259500       4.6407425750    2      C     62
      2.9480582500       7.7733734750       6.2398233750    2      C     63
      1.2722505500       6.5492007250       7.6588594000    2      C     64
%endblock atomiccoordinatesandatomicspecies
#
# -- K-points Info follows
#
%block kgrid_monkhorst_pack
    16      0      0       0.0000000000
     0     16      0       0.0000000000
     0      0     16       0.0000000000
%endblock kgrid_monkhorst_pack
#
# -- Max wall-clock time block
#
maxwalltime 7200000
