atomiccoordinatesformat Ang
cdfsave True
dminitspinaf False
dmmixingweight 0.025
dmmixscf1 True
dmnumberpulay 10
dmtolerance 1e-05
electronictemperature 50.000 K
geometrymustconverge T
latticeconstant 1.0 Ang
maxscfiterations 1000
meshcutoff 600 Ry
noncollinearspin False
numberofatoms 64
numberofspecies 2
savehs True
solutionmethod diagon
spinorbit False
spinpolarized False
systemlabel aiida
systemname aiida
usetreetimer T
writedmhsnetcdf True
writeorbmom True
xcauthors PBEsol
xcfunctional GGA
xmlwrite T
#
# -- Basis Set Info follows
#
PAO-BasisSize DZP
PAO-SplitNorm 0.15
PAO-EnergyShift 0.005 Ry
#
# -- Structural Info follows
#
%block chemicalspecieslabel
    1     5      B
    2     7      N
%endblock chemicalspecieslabel
%block lattice-vectors
      7.7962700000       0.0000000000       0.0000000000
      0.0000000000       7.7962700000       0.0000000000
      0.0000000000       0.0000000000       7.7962700000
%endblock lattice-vectors
%block atomiccoordinatesandatomicspecies
      6.4772190787       3.1278635240       5.2352732677    1      B      1
      3.4259928888       1.5373464813       5.9376392320    1      B      2
      4.7290614566       4.4064518040       1.7863593451    1      B      3
      6.7412787436       7.4787279229       5.5947592774    1      B      4
      2.9879984402       2.5053313645       3.0184038932    1      B      5
      1.2933232303       5.1343115712       5.7312719651    1      B      6
      7.4786499602       3.3732121409       0.2261697927    1      B      7
      1.5477934831       2.3819943731       6.9881866145    1      B      8
      4.9747998870       6.1337154225       6.1755034297    1      B      9
      5.4874826022       0.9689204356       4.6019042929    1      B     10
      6.1694223391       3.1157793055       2.8739390101    1      B     11
      2.7132578854       5.2973315769       3.0385962325    1      B     12
      0.8844088688       6.9683061260       4.9302831853    1      B     13
      7.7413842592       7.5184888999       0.1991946985    1      B     14
      6.8903434260       5.2266973707       6.7279471219    1      B     15
      7.3273243595       5.4103774919       4.0753442171    1      B     16
      7.1159674798       7.6594454615       2.9379463868    1      B     17
      0.9976107092       1.3501580386       4.4699134418    1      B     18
      1.8760944128       7.5619920865       2.3811367834    1      B     19
      1.1016129510       3.9887276574       3.1751868829    1      B     20
      4.5117794117       0.2959464092       2.1339170617    1      B     21
      2.3203258774       7.3570281482       7.2637067963    1      B     22
      3.1038510124       7.6875899962       4.4781774880    1      B     23
      6.7526612978       5.5876646717       1.4060572945    1      B     24
      6.9491273018       2.0486258679       6.9400056659    1      B     25
      0.6863056481       1.6854756113       1.8565257751    1      B     26
      5.0682771643       6.4032324764       3.3417152101    1      B     27
      1.9451693650       4.5460829997       0.4839144789    1      B     28
      5.0703041945       7.7722574884       7.5267529461    1      B     29
      3.1760444726       4.0396373005       5.2306734684    1      B     30
      3.3896622706       2.4095931689       1.2057711182    1      B     31
      5.1117803509       3.5401302816       6.9326771721    1      B     32
      1.0524184873       2.6433253435       0.6948035824    2      N     33
      2.1323578077       7.5959838237       5.7686940611    2      N     34
      0.7835251350       7.6907864669       3.4923391465    2      N     35
      4.1718620397       3.8087117831       0.4051721519    2      N     36
      6.2653164601       3.1402595933       1.2948824843    2      N     37
      3.3911435619       2.5572545227       4.6911715844    2      N     38
      6.4730090929       6.2776345667       0.0603431298    2      N     39
      4.7511249007       1.1444144733       0.7941280622    2      N     40
      4.8792955795       0.9734422722       6.0505292216    2      N     41
      6.5371723950       0.5667108663       7.0339507194    2      N     42
      0.2250003522       4.5805425131       1.3160103760    2      N     43
      6.6882641076       3.7034621381       6.7084564469    2      N     44
      1.9157774271       0.0326663713       0.8430886378    2      N     45
      0.6861497227       1.5017954901       5.9942401522    2      N     46
      6.4604570982       5.8838449690       2.8793963991    2      N     47
      1.7261721407       5.8042450523       1.8394519438    2      N     48
      3.0693135363       2.1405438912       7.3725427255    2      N     49
      4.2639359884       6.5384977609       4.7263327621    2      N     50
      6.2284401030       4.1714722262       4.0730832988    2      N     51
      7.5007913670       6.0037516016       5.5466562915    2      N     52
      1.8529394909       5.7245671729       7.0772200179    2      N     53
      3.8878439236       6.5999323685       7.5996480706    2      N     54
      2.1639327012       4.9468112777       4.4071534683    2      N     55
      4.7887808848       2.2479764918       2.9348278788    2      N     56
      7.2106141976       0.7246632965       1.5313433534    2      N     57
      3.1369071972       0.5977400209       3.0237053568    2      N     58
      0.5873709818       3.6971471594       5.1934852605    2      N     59
      5.6275815741       0.1162423857       3.2844905883    2      N     60
      4.0619346327       5.6374048743       2.4424154656    2      N     61
      1.0400224180       2.3333456483       3.2063719629    2      N     62
      6.9285451490       1.7766919703       4.4100380882    2      N     63
      4.3273976262       4.6246694013       6.0178628503    2      N     64
%endblock atomiccoordinatesandatomicspecies
#
# -- K-points Info follows
#
%block kgrid_monkhorst_pack
     6      0      0       0.0000000000
     0      6      0       0.0000000000
     0      0      6       0.0000000000
%endblock kgrid_monkhorst_pack
#
# -- Max wall-clock time block
#
maxwalltime 7200000
