atomiccoordinatesformat Ang
cdfsave True
dminitspinaf False
dmmixingweight 0.025
dmmixscf1 True
dmnumberpulay 10
dmtolerance 1e-05
electronictemperature 50.000 K
geometrymustconverge T
latticeconstant 1.0 Ang
maxscfiterations 1000
meshcutoff 600 Ry
noncollinearspin False
numberofatoms 64
numberofspecies 3
savehs True
solutionmethod diagon
spinorbit False
spinpolarized False
systemlabel aiida
systemname aiida
usetreetimer T
writedmhsnetcdf True
writeorbmom True
xcauthors PBEsol
xcfunctional GGA
xmlwrite T
#
# -- Basis Set Info follows
#
PAO-BasisSize DZP
PAO-SplitNorm 0.15
PAO-EnergyShift 0.005 Ry
#
# -- Structural Info follows
#
%block chemicalspecieslabel
    1     5      B
    2     7      N
    3     6      C
%endblock chemicalspecieslabel
%block lattice-vectors
      7.7894300000       0.0000000000       0.0000000000
      0.0000000000       7.7894300000       0.0000000000
      0.0000000000       0.0000000000       7.7894300000
%endblock lattice-vectors
%block atomiccoordinatesandatomicspecies
      0.7947555429       1.8679053140       1.4315414454    1      B      1
      3.7982039623       7.0107206829       4.6927421035    1      B      2
      5.8804743899       5.4226895888       5.1525521564    1      B      3
      2.7560561226       6.7052192383       1.0840549731    1      B      4
      2.9538297503       1.3576976490       0.4680668487    1      B      5
      0.7068128782       4.7246787665       1.0582719598    1      B      6
      7.4752043938       7.1498399027       1.6708327350    1      B      7
      4.3454114198       1.7226324445       3.7753809324    1      B      8
      7.5068294796       3.9683251135       6.9723187930    1      B      9
      2.3718035407       3.1253529989       2.7109553229    1      B     10
      4.4196446877       3.3421328358       2.0335085958    1      B     11
      2.3006860448       0.1832852879       5.7618413710    1      B     12
      4.3562387275       3.3310718452       6.0497387038    1      B     13
      6.5689821076       1.6830621401       2.3809950681    1      B     14
      3.0428629352       4.7670532657       4.6644664726    1      B     15
      1.3967226933       5.7792896942       4.1512209299    1      B     16
      6.8391195400       6.3328844843       7.1217200604    1      B     17
      4.0378068291       6.7960439921       7.1968880599    1      B     18
      1.6977841628       3.1093067731       6.2319334715    1      B     19
      7.4075142471       1.5500965700       7.4255078304    1      B     20
      7.3772912587       7.7644259297       5.8957416727    1      B     21
      2.0548516340       0.4823993999       3.1034647006    1      B     22
      6.8184775505       4.0815834257       2.4168264461    1      B     23
      4.9847678342       0.9265526985       6.5016814324    1      B     24
      2.2480294980       4.2901843611       7.6017826313    1      B     25
      5.8817206987       5.5456067942       2.8659649799    1      B     26
      0.3735810628       4.2801359964       4.5128062705    1      B     27
      1.2862685759       6.3188635103       7.2471298834    1      B     28
      3.3863767982       5.1145397380       2.0028182416    1      B     29
      7.4022174347       1.8791220932       5.1981203219    1      B     30
      0.9624619708       3.8149512368       3.0416945207    2      N     31
      2.3221848716       1.7019904550       5.9577455355    2      N     32
      6.4128819304       1.1184842537       6.1976599795    2      N     33
      0.3389959936       3.1897715850       5.5998991213    2      N     34
      4.6761506176       5.9494887397       1.9185366090    2      N     35
      2.0879567115       2.6968564546       0.9887902442    2      N     36
      1.0113795912       7.3610113500       6.1473402617    2      N     37
      6.7917598056       4.7801395081       3.9509546846    2      N     38
      2.7880706799       5.9127226301       7.3892090866    2      N     39
      4.6686727648       0.1595275264       3.7757704039    2      N     40
      5.8025800899       4.0325879110       5.9664696971    2      N     41
      1.8955577905       5.6731197633       2.2773956491    2      N     42
      0.8643930471       1.6011952308       3.2878405087    2      N     43
      3.7349537907       3.9083465025       0.6769793613    2      N     44
      4.6547296851       2.0242391741       5.2234359694    2      N     45
      0.1238519370       6.3308592325       0.4788941564    2      N     46
      5.3583488970       6.1263866950       7.4328298946    2      N     47
      0.8231869624       7.2413657052       2.6702166040    2      N     48
      4.5599323220       1.6884368468       0.0858395186    2      N     49
      4.4338993446       5.6345620848       4.7572385839    2      N     50
      3.5869546207       4.1000443748       3.3529601435    2      N     51
      2.8291988703       1.8404086261       3.5307149361    2      N     52
      2.9093521050       0.3442928060       1.7551922619    2      N     53
      6.2468112828       0.1675506393       1.8552085431    2      N     54
      7.0315184610       1.3028600618       3.8193912119    2      N     55
      2.9341224924       4.1300336803       6.0529323701    2      N     56
      2.2259854111       7.2407425508       4.2824728254    2      N     57
      7.0534846536       2.1523752976       1.0099774938    2      N     58
      5.1801267386       2.2117307542       2.6228568696    2      N     59
      3.8355153320       0.0408166132       6.0699912218    2      N     60
      6.9490283973       6.6127587042       4.9386544086    2      N     61
      4.9740184208       7.3848470058       2.3686098744    3      C     62
      6.8598394238       3.7767051355       0.7663241234    3      C     63
      5.2562294697       4.5737196131       0.2742658303    3      C     64
%endblock atomiccoordinatesandatomicspecies
#
# -- K-points Info follows
#
%block kgrid_monkhorst_pack
     8      0      0       0.0000000000
     0      8      0       0.0000000000
     0      0      8       0.0000000000
%endblock kgrid_monkhorst_pack
#
# -- Max wall-clock time block
#
maxwalltime 7200000
