atomiccoordinatesformat Ang
cdfsave True
dminitspinaf False
dmmixingweight 0.025
dmmixscf1 True
dmnumberpulay 10
dmtolerance 1e-05
electronictemperature 50.000 K
geometrymustconverge T
latticeconstant 1.0 Ang
maxscfiterations 1000
meshcutoff 400 Ry
noncollinearspin False
numberofatoms 64
numberofspecies 3
savehs True
solutionmethod diagon
spinorbit False
spinpolarized False
systemlabel aiida
systemname aiida
usetreetimer T
writedmhsnetcdf True
writeorbmom True
xcauthors PBEsol
xcfunctional GGA
xmlwrite T
#
# -- Basis Set Info follows
#
PAO-BasisSize DZP
PAO-SplitNorm 0.15
PAO-EnergyShift 0.005 Ry
#
# -- Structural Info follows
#
%block chemicalspecieslabel
    1     5      B
    2     7      N
    3     6      C
%endblock chemicalspecieslabel
%block lattice-vectors
      7.3905600000       0.0000000000       0.0000000000
      0.0000000000       7.3905600000       0.0000000000
      0.0000000000       0.0000000000       7.3905600000
%endblock lattice-vectors
%block atomiccoordinatesandatomicspecies
      6.9277631328       4.5757174128       4.7015047440    1      B      1
      6.3289799616       6.7280702016       3.5408912016    1      B      2
      5.5374509856       2.2997205552       2.5428699792    1      B      3
      6.5495881776       2.4194476272       5.7820046160    1      B      4
      5.1131589360       0.8508751728       4.6070533872    1      B      5
      6.5800372848       1.3579414944       0.7865773008    1      B      6
      1.2320802576       1.8900618144       1.6639106784    1      B      7
      1.1372593728       2.4995612976       4.1904475200    1      B      8
      5.2620048144       2.5513691232       0.7286353104    1      B      9
      4.9906234512       7.3233798096       1.9797093072    1      B     10
      0.1095280992       7.0033685616       2.0578275264    1      B     11
      6.9472003056       0.9544169184       3.6276563760    1      B     12
      1.6426997712       2.1239730384       7.0275356928    1      B     13
      4.9032670320       4.6670647344       2.9238533472    1      B     14
      3.2326309440       6.5559440592       3.4560475728    1      B     15
      7.2846532752       6.1281784464       7.0460859984    1      B     16
      1.1550706224       3.9569058240       5.8623400032    1      B     17
      3.9001463232       5.1196626288       1.0955027088    1      B     18
      4.5283439232       2.7068665056       3.7643817360    1      B     19
      4.1683497456       2.1992828448       5.8312257456    1      B     20
      2.4318637680       6.8786898144       1.0486465584    1      B     21
      2.4901752864       5.4402651216       1.5970261104    2      N     22
      1.7283563616       0.7887205632       0.6497041296    2      N     23
      3.6635005920       0.6077257488       3.9533583552    2      N     24
      5.4333179952       1.6912557504       6.7843123632    2      N     25
      0.0182546832       1.5720460176       4.8955069440    2      N     26
      4.3332331392       6.0307708656       2.3593623744    2      N     27
      5.3819536032       0.8500622112       3.1203683376    2      N     28
      4.2475765488       3.6206353440       1.1291297568    2      N     29
      6.2246991600       3.8889126720       5.7999636768    2      N     30
      0.9043828272       4.0504703136       4.1296232112    2      N     31
      3.0885150240       3.1916133360       3.3912323616    2      N     32
      0.9829444800       6.6158815008       3.3838418016    2      N     33
      2.7310336368       1.5087828240       6.1581102144    2      N     34
      6.2918054448       5.2101230832       3.5213801232    2      N     35
      0.6555426720       5.9985480240       1.0167932448    2      N     36
      6.1996451616       3.7001577696       2.4733987152    2      N     37
      0.1528367808       1.8253205088       6.9554038272    2      N     38
      4.5340346544       1.0936550688       1.0598802096    2      N     39
      7.3077857280       1.2406533072       2.1613692720    2      N     40
      1.0628364336       5.5824594960       6.1450289232    2      N     41
      5.7631586880       5.5484629200       7.3762223136    2      N     42
      0.7179189984       3.2925683856       1.5683507376    2      N     43
      3.4281851616       0.0700625088       6.6283715472    3      C     44
      2.1913010400       2.1105961248       2.8280716896    3      C     45
      2.4203344944       6.1530846336       6.5604523008    3      C     46
      2.2363834560       3.7456836192       7.0180018704    3      C     47
      2.5975601232       4.6689862800       3.8627500896    3      C     48
      0.3438088512       6.3891391200       4.9139833440    3      C     49
      6.2698554816       4.1393048448       7.1937493872    3      C     50
      3.1156383792       1.3039165008       1.6357526448    3      C     51
      3.7606125504       3.4378667952       6.8967966864    3      C     52
      4.0758199344       5.3619990912       6.3665240064    3      C     53
      4.9176786240       3.6559622208       4.9858934928    3      C     54
      1.6118072304       4.3211126208       0.9953606208    3      C     55
      6.0099294864       6.5849889600       1.0480553136    3      C     56
      1.4802552624       0.5177826336       3.9788557872    3      C     57
      3.5495381568       4.8132500112       5.0260981392    3      C     58
      1.6358265504       5.3585994336       2.8986515376    3      C     59
      6.7656881520       3.7156040400       1.0781348928    3      C     60
      0.0745707504       0.2059749072       6.3117599568    3      C     61
      2.5111644768       1.4258607408       4.6876843968    3      C     62
      5.4201627984       0.3690106608       6.0344661456    3      C     63
      5.2784857632       6.3102079392       6.0448129296    3      C     64
%endblock atomiccoordinatesandatomicspecies
#
# -- K-points Info follows
#
%block kgrid_monkhorst_pack
     6      0      0       0.0000000000
     0      6      0       0.0000000000
     0      0      6       0.0000000000
%endblock kgrid_monkhorst_pack
#
# -- Max wall-clock time block
#
maxwalltime 7200000
