atomiccoordinatesformat Ang
cdfsave True
dminitspinaf False
dmmixingweight 0.025
dmmixscf1 True
dmnumberpulay 10
dmtolerance 1e-05
electronictemperature 50.000 K
geometrymustconverge T
latticeconstant 1.0 Ang
maxscfiterations 1000
meshcutoff 400 Ry
noncollinearspin False
numberofatoms 64
numberofspecies 3
savehs True
solutionmethod diagon
spinorbit False
spinpolarized False
systemlabel aiida
systemname aiida
usetreetimer T
writedmhsnetcdf True
writeorbmom True
xcauthors PBEsol
xcfunctional GGA
xmlwrite T
#
# -- Basis Set Info follows
#
PAO-BasisSize DZP
PAO-SplitNorm 0.15
PAO-EnergyShift 0.005 Ry
#
# -- Structural Info follows
#
%block chemicalspecieslabel
    1     5      B
    2     7      N
    3     6      C
%endblock chemicalspecieslabel
%block lattice-vectors
      7.5958200000       0.0000000000       0.0000000000
      0.0000000000       7.3449500000       0.0000000000
      0.0000000000       0.0000000000       7.2150200000
%endblock lattice-vectors
%block atomiccoordinatesandatomicspecies
      7.2799858044       1.9756446510       5.6191297262    1      B      1
      4.0244173524       6.5910643320       7.2094644346    1      B      2
      1.5291904824       6.4738389300       0.5164511316    1      B      3
      7.4804394942       4.4142415005       4.9237460986    1      B      4
      5.0423331906       3.2823112560       2.1751120794    1      B      5
      5.5288454616       5.4234376305       5.8196351320    1      B      6
      4.4817616746       6.8224302570       4.0351442354    1      B      7
      3.2049043326       2.3772665170       0.8559178226    1      B      8
      4.7043192006       1.1777627325       6.2832723172    1      B      9
      0.9386914356       5.0598626055       2.4951703666    1      B     10
      7.5219126714       6.9123324450       6.0832719628    1      B     11
      6.5005027560       5.0121938800       0.9868704356    1      B     12
      1.4246719992       2.8674684800       3.8432247034    1      B     13
      7.2802136790       1.1143758140       0.7990634650    1      B     14
      0.5908028796       2.7495085830       1.2801609986    1      B     15
      1.3804643268       0.5102536765       4.3772083336    1      B     16
      3.7151915202       1.1712257270       2.9631365638    1      B     17
      6.1751737854       3.2051158315       6.8215128092    1      B     18
      2.9060088156       6.4184580070       1.9402631784    1      B     19
      3.2169057282       3.2073927660       5.7910636528    1      B     20
      5.2759806138       2.6102483310       4.4119125798    1      B     21
      4.3012090332       4.7121526725       0.4869416998    1      B     22
      6.2497647378       0.1463114040       3.9240329274    1      B     23
      2.2065097518       0.6998268360       6.7811808474    1      B     24
      1.2908336508       4.1561399575       0.4280671366    1      B     25
      1.2184454862       0.6667011115       2.5681142188    1      B     26
      3.9929706576       3.3438619370       4.6211481598    2      N     27
      4.0244933106       0.3737110560       5.1635012132    2      N     28
      6.2967069054       6.2667847895       6.8541246996    2      N     29
      1.6386462486       4.3133953370       3.4611893944    2      N     30
      4.1814989100       2.0550435605       1.8588777528    2      N     31
      0.2039477670       4.3120732460       1.4099592084    2      N     32
      0.4804356150       2.9993103325       4.8612640254    2      N     33
      5.4557736732       3.8740204280       0.7891788876    2      N     34
      3.6548047512       7.0304392410       2.9186920406    2      N     35
      4.0628522016       4.3742115230       2.6197737620    2      N     36
      3.5656298244       5.0976890980       1.6102481636    2      N     37
      7.4470178862       0.5913419245       4.9059249992    2      N     38
      1.3532712912       6.4496005950       2.0593831586    2      N     39
      3.4341461802       2.0287486395       6.6798819666    2      N     40
      5.7221590806       2.1597090980       5.8171098750    2      N     41
      6.4534846302       4.3188306000       5.9103279334    2      N     42
      5.2941346236       7.3037448305       0.1805198004    2      N     43
      2.9067683976       7.2012093285       0.6098856406    2      N     44
      2.1201452784       1.5427332980       3.4194144286    2      N     45
      5.6457451314       5.9909084675       4.4216528568    2      N     46
      6.0087493692       3.4237749930       3.3362252480    2      N     47
      0.7375541220       0.2530335275       7.1476317132    2      N     48
      0.7506948906       5.7412536170       5.5323330356    2      N     49
      0.2894767002       1.5533834755       2.0548376960    2      N     50
      2.0128923000       3.1058855570       1.0316035596    2      N     51
      6.2781731046       7.0172917805       2.4295136846    2      N     52
      7.3744778052       2.3721250520       7.1896952798    2      N     53
      2.5069244328       5.0780046320       4.3963281366    3      C     54
      2.5536387258       0.1815671640       5.3912793946    3      C     55
      5.9934817710       0.4672857190       1.2901177262    3      C     56
      3.6835929090       4.4144618490       3.8508726246    3      C     57
      4.8794028516       1.1575641200       3.9897617596    3      C     58
      6.3189626580       5.6976246140       2.3370892784    3      C     59
      6.3978072696       4.8552322985       3.5790828212    3      C     60
      2.7445976406       4.6923213075       5.9093899808    3      C     61
      1.5637514634       5.2157224445       6.6524648906    3      C     62
      4.0472048124       5.3574799795       6.3650906440    3      C     63
      1.8619633566       6.3866543735       4.7011627316    3      C     64
%endblock atomiccoordinatesandatomicspecies
#
# -- K-points Info follows
#
%block kgrid_monkhorst_pack
     6      0      0       0.0000000000
     0      6      0       0.0000000000
     0      0      6       0.0000000000
%endblock kgrid_monkhorst_pack
#
# -- Max wall-clock time block
#
maxwalltime 7200000
