atomiccoordinatesformat Ang
cdfsave True
dminitspinaf False
dmmixingweight 0.025
dmmixscf1 True
dmnumberpulay 10
dmtolerance 1e-05
electronictemperature 50.000 K
geometrymustconverge T
latticeconstant 1.0 Ang
maxscfiterations 1000
meshcutoff 400 Ry
noncollinearspin False
numberofatoms 64
numberofspecies 3
savehs True
solutionmethod diagon
spinorbit False
spinpolarized False
systemlabel aiida
systemname aiida
usetreetimer T
writedmhsnetcdf True
writeorbmom True
xcauthors PBEsol
xcfunctional GGA
xmlwrite T
#
# -- Basis Set Info follows
#
PAO-BasisSize DZP
PAO-SplitNorm 0.15
PAO-EnergyShift 0.005 Ry
#
# -- Structural Info follows
#
%block chemicalspecieslabel
    1     5      B
    2     7      N
    3     6      C
%endblock chemicalspecieslabel
%block lattice-vectors
      7.9991100000       0.0000000000       0.0000000000
      0.0000000000       7.9991100000       0.0000000000
      0.0000000000       0.0000000000       7.9991100000
%endblock lattice-vectors
%block atomiccoordinatesandatomicspecies
      0.4645883088       4.8112246917       1.1969868204    1      B      1
      1.9514628756       6.2210678292       5.8518289116    1      B      2
      3.0511005273       5.5869783795       1.5263901702    1      B      3
      1.9950580251       0.6007331610       4.2211303470    1      B      4
      2.8946379357       1.5109518879       0.1435840245    1      B      5
      7.2159971310       3.1369309776       5.2300580913    1      B      6
      5.1856630308       2.7770510187       7.9067202795    1      B      7
      6.9684246765       1.2491410176       1.2859369236    1      B      8
      0.7698343464       6.9759438399       7.8737639463    1      B      9
      2.3303007252       7.8305687523       1.2963357666    1      B     10
      2.4432481584       6.3641719071       3.6778307958    1      B     11
      4.9277717244       1.4325606099       3.1055744664    1      B     12
      4.2882428799       3.3034724478       5.8303113057    1      B     13
      5.2682138460       6.7738063302       0.5050638054    1      B     14
      4.3374374064       4.2816836097       2.9520715455    1      B     15
      4.8500203752       6.9940218285       4.1399393805    1      B     16
      6.7311710739       0.6038528139       7.3872580761    1      B     17
      2.3420594169       1.7331671637       2.2154335056    1      B     18
      0.4101943608       0.3054060198       2.6366666382    1      B     19
      7.0832918961       6.3488936070       2.8775998314    1      B     20
      1.2359424861       2.7028192779       4.5027790101    1      B     21
      0.3660392736       0.6323296455       5.9195013822    1      B     22
      6.6842162982       2.7333758781       2.7122582277    1      B     23
      7.8500065896       5.1594259500       4.9103336646    1      B     24
      6.7983635979       5.0311202256       0.0167981310    1      B     25
      0.2694900159       4.4318269044       6.7010144292    1      B     26
      6.3382547907       0.1387845585       5.0259208041    1      B     27
      5.7956751594       4.4998193394       6.3935286408    2      N     28
      4.9334510925       0.5446593999       1.0791599301    2      N     29
      6.0681248460       4.4831811906       1.9487431782    2      N     30
      3.5959999005       7.4166948009       5.2580549763    2      N     31
      3.7115870400       4.9450498020       4.5365352543    2      N     32
      1.2418618275       2.9840679855       0.4105143252    2      N     33
      0.3421219347       7.1288868231       4.4824612707    2      N     34
      4.5204570432       2.5973110170       1.6876522278    2      N     35
      7.0155394344       6.8112421650       0.9271768401    2      N     36
      1.9989775890       0.1399844250       6.5679892299    2      N     37
      3.4271386884       7.0225786512       7.9421563368    2      N     38
      5.5802591271       7.0245784287       6.5415121758    2      N     39
      3.4927313904       0.1268658846       2.8260855630    2      N     40
      1.3020951258       6.5203145343       2.2078343511    2      N     41
      1.7925205599       5.3666028990       7.8579257085    2      N     42
      0.3681990333       2.4685253460       6.6794968233    2      N     43
      5.6180149263       3.3575464314       4.1984128746    2      N     44
      5.8619077902       5.5462629096       4.6057275558    2      N     45
      6.0423677118       1.9329049404       6.2377059780    2      N     46
      6.2972193564       0.0269570007       2.8662410952    2      N     47
      2.5141202730       2.0354535306       5.9466183651    2      N     48
      4.6119668616       4.8109047273       0.4468302846    2      N     49
      4.6354042539       6.2660228274       2.3974132581    2      N     50
      0.7260792147       0.8395865856       0.3442816944    2      N     51
      7.8230495889       4.5378151119       3.0234236067    2      N     52
      4.3389572373       0.8093499498       7.0600144860    2      N     53
      7.5537995463       1.4859146736       4.2304893057    2      N     54
      3.1260521880       2.6604239949       3.6550333323    2      N     55
      2.2000752144       4.1493783303       5.9046230376    3      C     56
      3.1749267501       3.5624036385       7.6922641404    3      C     57
      4.4499848841       1.3659280236       4.9304114307    3      C     58
      0.6443283105       2.5685942121       2.4204506949    3      C     59
      3.9897160947       5.5879382727       6.5785480551    3      C     60
      1.6847725482       4.4762219649       3.8322136188    3      C     61
      7.0553750022       3.0906161307       0.3661192647    3      C     62
      2.4002129466       3.8760487416       1.8899497197    3      C     63
      7.5926752209       6.5457517041       6.4056872880    3      C     64
%endblock atomiccoordinatesandatomicspecies
#
# -- K-points Info follows
#
%block kgrid_monkhorst_pack
    10      0      0       0.0000000000
     0     10      0       0.0000000000
     0      0     10       0.0000000000
%endblock kgrid_monkhorst_pack
#
# -- Max wall-clock time block
#
maxwalltime 7200000
