atomiccoordinatesformat Ang
cdfsave True
dminitspinaf False
dmmixingweight 0.025
dmmixscf1 True
dmnumberpulay 10
dmtolerance 1e-05
electronictemperature 50.000 K
geometrymustconverge T
latticeconstant 1.0 Ang
maxscfiterations 1000
meshcutoff 600 Ry
noncollinearspin False
numberofatoms 64
numberofspecies 2
savehs True
solutionmethod diagon
spinorbit False
spinpolarized False
systemlabel aiida
systemname aiida
usetreetimer T
writedmhsnetcdf True
writeorbmom True
xcauthors PBEsol
xcfunctional GGA
xmlwrite T
#
# -- Basis Set Info follows
#
PAO-BasisSize DZP
PAO-SplitNorm 0.15
PAO-EnergyShift 0.005 Ry
#
# -- Structural Info follows
#
%block chemicalspecieslabel
    1     7      N
    2     6      C
%endblock chemicalspecieslabel
%block lattice-vectors
      8.4662400000       0.0000000000       0.0000000000
      0.0000000000       8.4662400000       0.0000000000
      0.0000000000       0.0000000000       8.4662400000
%endblock lattice-vectors
%block atomiccoordinatesandatomicspecies
      8.3671003296       0.7351236192       2.4716341056    1      N      1
      6.8513893824       2.1064851744       2.9070528288    1      N      2
      0.1181040480       3.1048241952       3.1787344704    1      N      3
      7.7733629184       1.8583396800       0.6072833952    1      N      4
      2.5176904512       2.5442744448       2.6361331488    1      N      5
      1.8257446560       0.5674074048       0.6109238784    1      N      6
      0.7760155584       2.8680234624       1.2034760160    1      N      7
      3.9330764544       0.0688305312       0.7840584864    1      N      8
      5.1765131232       0.2211381888       3.5024834880    1      N      9
      5.8770098208       4.0695522432       0.6807703584    1      N     10
      0.2389172928       1.1019657984       6.1425111072    1      N     11
      7.1749690752       0.6364072608       6.7489478784    1      N     12
      3.7313259552       1.5875046624       6.2720445792    1      N     13
      7.4213366592       3.8447735712       7.5282652704    1      N     14
      1.8591863040       3.8569649568       5.2531325952    1      N     15
      0.4774112736       3.1831369152       6.3225880320    1      N     16
      7.9662238656       1.6800406656       4.6038566496    1      N     17
      5.8566908448       2.0895526944       6.3343561056    1      N     18
      3.5796955968       3.3317194272       5.7376555104    1      N     19
      5.8658343840       1.4281700256       0.0361508448    1      N     20
      2.1157133760       3.6989849184       7.5297045312    1      N     21
      7.3314251904       6.3821903616       0.9584630304    1      N     22
      4.8655481280       6.6130647264       1.4100522720    1      N     23
      3.0690120000       6.0932375904       1.4319798336    1      N     24
      0.3392422368       7.3193184672       2.1658335168    1      N     25
      2.4233765376       6.9811768416       8.3446647936    1      N     26
      7.0223227680       8.2893802464       0.8473859616    1      N     27
      0.8027688768       5.7965805408       0.5383682016    1      N     28
      7.0176663360       4.3936399104       3.4693804896    1      N     29
      7.8802915296       4.4737305408       1.3204794528    1      N     30
      0.1098917952       7.9536091680       4.4385956448    1      N     31
      2.8631130432       6.7476779424       4.7422796736    1      N     32
      4.1401606848       5.1876038976       5.3836820160    1      N     33
      6.9057426432       7.4309035104       7.5142113120    1      N     34
      6.7954275360       8.1804197376       4.3724743104    1      N     35
      6.2919402432       5.6121858336       6.7372644672    1      N     36
      8.2660134240       6.4653288384       6.8706924096    1      N     37
      4.8784168128       5.6036349312       7.9382006112    1      N     38
      0.4029930240       8.1635719200       8.2563619104    1      N     39
      7.0150418016       5.8758245472       4.9627405632    1      N     40
      2.4643531392       5.7888762624       6.6213616416    1      N     41
      5.2981729920       7.4097379104       5.2947864960    1      N     42
      0.6530010912       5.0058337248       7.2344867424    1      N     43
      1.0065512736       7.4278556640       5.8991913696    1      N     44
      2.7465329184       0.0795826560       5.3235717120    1      N     45
      1.8719703264       4.3213382208       0.7530720480    2      C     46
      2.0510313024       1.3474867584       3.9294359712    2      C     47
      4.8751996416       3.2524754208       2.4973714752    2      C     48
      3.2978544672       3.3218139264       1.1669018592    2      C     49
      4.1530293696       2.1046226016       0.3271355136    2      C     50
      1.5368765472       1.3986228480       7.1720058912    2      C     51
      3.1848301632       0.6861887520       7.6663496448    2      C     52
      4.9039848576       2.5617995616       4.5959830464    2      C     53
      2.1613464096       8.3293408992       2.3280466752    2      C     54
      7.2333861312       6.3931964736       2.9965409856    2      C     55
      1.8236280960       4.1004540192       3.1964289120    2      C     56
      2.2725928032       5.9295851712       2.9288957280    2      C     57
      0.5045032416       5.3921482560       3.6485261280    2      C     58
      5.3344084992       0.1043887392       1.8160931424    2      C     59
      5.2427191200       8.3859800448       7.2774952416    2      C     60
      4.5789659040       4.9019529600       3.6345568320    2      C     61
      6.8302237824       3.8865967968       5.5304866176    2      C     62
      3.8431649856       4.2685935456       7.5755915520    2      C     63
      4.0439841984       7.0216454688       6.7937342880    2      C     64
%endblock atomiccoordinatesandatomicspecies
#
# -- K-points Info follows
#
%block kgrid_monkhorst_pack
     8      0      0       0.0000000000
     0      8      0       0.0000000000
     0      0      8       0.0000000000
%endblock kgrid_monkhorst_pack
#
# -- Max wall-clock time block
#
maxwalltime 7200000
