atomiccoordinatesformat Ang
cdfsave True
dminitspinaf False
dmmixingweight 0.025
dmmixscf1 True
dmnumberpulay 10
dmtolerance 1e-05
electronictemperature 50.000 K
geometrymustconverge T
latticeconstant 1.0 Ang
maxscfiterations 1000
meshcutoff 400 Ry
noncollinearspin False
numberofatoms 64
numberofspecies 3
savehs True
solutionmethod diagon
spinorbit False
spinpolarized False
systemlabel aiida
systemname aiida
usetreetimer T
writedmhsnetcdf True
writeorbmom True
xcauthors PBEsol
xcfunctional GGA
xmlwrite T
#
# -- Basis Set Info follows
#
PAO-BasisSize DZP
PAO-SplitNorm 0.15
PAO-EnergyShift 0.005 Ry
#
# -- Structural Info follows
#
%block chemicalspecieslabel
    1     5      B
    2     7      N
    3     6      C
%endblock chemicalspecieslabel
%block lattice-vectors
      8.9937700000       0.0000000000       0.0000000000
      0.0000000000       8.9937700000       0.0000000000
      0.0000000000       0.0000000000       8.9937700000
%endblock lattice-vectors
%block atomiccoordinatesandatomicspecies
      1.3167778657       6.5977397343       6.5310059609    1      B      1
      3.3069192913       2.1103881305       8.0103911882    1      B      2
      0.2064070215       8.5773584490       0.2315895775    1      B      3
      5.6813645090       7.9665915283       0.5143537063    1      B      4
      0.0525236168       5.7499869741       3.6133370352    1      B      5
      5.4578693245       4.0014182107       8.8683968462    1      B      6
      4.2533337084       6.1865445699       8.3457688715    1      B      7
      6.4854974847       5.6747091192       0.2887899547    1      B      8
      3.0330589948       2.9630874642       2.6314871643    1      B      9
      6.2255775317       2.4645627931       7.0867310092    1      B     10
      4.0851502094       3.9658928192       4.5599313277    1      B     11
      1.0260092816       4.3053176990       1.9803382163    1      B     12
      2.5903856354       7.3128343870       0.1261825931    1      B     13
      4.4981441278       8.9667886900       2.3210222239    1      B     14
      3.2007028676       7.9386209036       6.8656641426    1      B     15
      3.0464597121       4.2595394097       0.5613011857    1      B     16
      1.7943470527       7.7994872817       7.2110249106    2      N     17
      0.2181888602       4.3848226258       3.1919789107    2      N     18
      0.9695284060       5.3557000973       1.0260992193    2      N     19
      1.9668475613       5.3109111227       6.8086436408    2      N     20
      6.1643299580       2.8172085148       8.5093655478    2      N     21
      4.2671841142       4.7949385378       8.9748830830    2      N     22
      8.3854313972       6.5850585186       4.5605608916    2      N     23
      3.8433976718       3.3339905390       7.6607134106    2      N     24
      4.6237870947       6.5752553093       4.9855165241    2      N     25
      2.3114888277       3.6891545163       1.6636675746    2      N     26
      8.0393511276       1.2926745621       5.2652227711    2      N     27
      3.8978099803       0.1249234653       3.5349113608    2      N     28
      5.2764649836       1.4878393711       6.7175367507    2      N     29
      5.4647045897       6.6133888941       0.1168290723    2      N     30
      4.4025403527       7.5524284198       7.6409271166    2      N     31
      5.6246138203       0.0097132716       1.4667040116    2      N     32
      7.0597496992       3.1086066628       6.1534474963    2      N     33
      0.1438103823       6.7258110191       5.6836129515    3      C     34
      1.5498064464       6.4071617480       0.4626395288    3      C     35
      7.5099778254       3.3220288249       4.8873045557    3      C     36
      7.2247853787       1.3245125079       2.7660339635    3      C     37
      1.4309088070       4.0793042589       6.4971893857    3      C     38
      0.0822030578       2.1057113701       5.6525844450    3      C     39
      8.0116503160       5.3915852396       1.7786978929    3      C     40
      5.5902576189       8.1711997958       7.3874826780    3      C     41
      6.6322758111       1.9953578122       0.4969957302    3      C     42
      5.5724499543       2.9555326974       2.8297997928    3      C     43
      6.6541306722       3.3500893873       2.3140070833    3      C     44
      8.3663646048       3.6048828914       3.9439480204    3      C     45
      1.0841989735       8.4681740812       8.1382825976    3      C     46
      0.7101480792       3.2123947686       5.8731116854    3      C     47
      3.9064439995       0.5238871025       4.7844158269    3      C     48
      7.1192884566       6.9769170775       4.4050586083    3      C     49
      4.3754691050       1.0073022400       5.8721223707    3      C     50
      3.4056708859       0.7386583301       8.3581802741    3      C     51
      4.3514557391       3.1207482523       3.3446031876    3      C     52
      3.8333246494       7.4538567006       5.6302798954    3      C     53
      3.1095959775       8.6207084204       8.9550967890    3      C     54
      8.0367429343       6.6561093016       1.5981029913    3      C     55
      7.6895834123       1.0522710900       3.9522222888    3      C     56
      4.2348964799       5.2745762919       5.0102493916    3      C     57
      5.8388454217       6.9748485104       4.5440123548    3      C     58
      6.5411689210       1.1338445839       1.5766978187    3      C     59
      7.2965556633       0.6129254255       6.1833068127    3      C     60
      8.4641268847       7.7680090867       1.1465257996    3      C     61
      6.5334342788       8.6816861810       6.6756257825    3      C     62
      3.2084375098       5.5369245628       7.3930588154    3      C     63
      7.5117765794       4.2231146412       1.9406756906    3      C     64
%endblock atomiccoordinatesandatomicspecies
#
# -- K-points Info follows
#
%block kgrid_monkhorst_pack
     8      0      0       0.0000000000
     0      8      0       0.0000000000
     0      0      8       0.0000000000
%endblock kgrid_monkhorst_pack
#
# -- Max wall-clock time block
#
maxwalltime 7200000
