atomiccoordinatesformat Ang
cdfsave True
dminitspinaf False
dmmixingweight 0.025
dmmixscf1 True
dmnumberpulay 10
dmtolerance 1e-05
electronictemperature 50.000 K
geometrymustconverge T
latticeconstant 1.0 Ang
maxscfiterations 1000
meshcutoff 400 Ry
noncollinearspin False
numberofatoms 64
numberofspecies 3
savehs True
solutionmethod diagon
spinorbit False
spinpolarized False
systemlabel aiida
systemname aiida
usetreetimer T
writedmhsnetcdf True
writeorbmom True
xcauthors PBEsol
xcfunctional GGA
xmlwrite T
#
# -- Basis Set Info follows
#
PAO-BasisSize DZP
PAO-SplitNorm 0.15
PAO-EnergyShift 0.005 Ry
#
# -- Structural Info follows
#
%block chemicalspecieslabel
    1     5      B
    2     7      N
    3     6      C
%endblock chemicalspecieslabel
%block lattice-vectors
      7.3260500000       0.0000000000       0.0000000000
      0.0000000000       7.3260500000       0.0000000000
      0.0000000000       0.0000000000       7.3260500000
%endblock lattice-vectors
%block atomiccoordinatesandatomicspecies
      7.0341801680       2.9857316775       4.0961410760    1      B      1
      5.4187128825       5.6818645985       0.5586113125    1      B      2
      3.5529144685       1.9654326940       7.0416527390    1      B      3
      6.9892714815       0.0839565330       1.5528295580    1      B      4
      2.9080022870       2.1811116060       3.8155533610    1      B      5
      1.1304095150       5.1487479400       4.5617115535    1      B      6
      4.3831757150       5.8726349405       1.2053550065    1      B      7
      5.4449401415       1.9209635705       5.4802517025    1      B      8
      1.9284361415       0.0951653895       5.4490427295    1      B      9
      5.4642809135       1.2909965310       3.1935717160    1      B     10
      7.1167447515       5.7840629960       6.8305159780    1      B     11
      1.1545854800       1.1614719670       3.4866137160    1      B     12
      5.7785684585       3.4565036505       7.2081005950    1      B     13
      5.9684596745       4.3356296505       3.0652193200    1      B     14
      0.7928983915       3.5650024510       6.2697068505    1      B     15
      1.3993488105       3.8677148370       2.8808226415    1      B     16
      1.7622080670       5.4601783255       6.9216520400    1      B     17
      1.7461640175       0.4955340220       0.2585363045    1      B     18
      6.8946921760       7.1031915590       4.3310874995    1      B     19
      6.2498532550       4.8490392345       5.2833274785    1      B     20
      2.4551791365       6.3892679865       2.7305653560    1      B     21
      0.3627127355       1.2796411535       5.8750525370    1      B     22
      5.7766636855       2.5036043270       1.6348080575    1      B     23
      3.4186279720       4.3653001530       6.7484642180    1      B     24
      4.5872794680       6.2261901135       3.8278611250    1      B     25
      0.0808795920       4.6791481350       1.1577356815    1      B     26
      3.7744542205       3.7362122395       1.9936379865    1      B     27
      3.6717429995       6.8997471505       6.2714651025    1      B     28
      5.5954904690       0.7405903945       0.2405874820    1      B     29
      5.2749757815       4.9987836965       4.1809034745    2      N     30
      6.3540296860       1.2278459800       6.4265575810    2      N     31
      3.5755519630       3.6946735360       5.4994459535    2      N     32
      1.6450645275       5.9764450690       5.5641349750    2      N     33
      3.8732093745       6.1469955130       2.5396484930    2      N     34
      0.7276232860       0.4893801400       4.6674997155    2      N     35
      4.8132881105       2.4951793695       6.6366686950    2      N     36
      4.6365105240       6.9647292140       0.0322346200    2      N     37
      7.3168191770       4.3683770940       2.5418463080    2      N     38
      2.8088075700       2.2726139705       0.9258661990    2      N     39
      0.6842530700       2.5270476870       3.0720325465    2      N     40
      0.7659385275       0.9236683840       1.1534133120    2      N     41
      1.4690195460       2.2821378355       6.0302915365    2      N     42
      6.8837763615       3.2362825875       0.9157562500    2      N     43
      5.5692632100       2.4991354365       4.1345295780    2      N     44
      1.1792010080       4.2725523600       0.2145800045    2      N     45
      1.6291669990       5.3103606030       3.2181872440    2      N     46
      5.9113897450       4.8220793705       6.7056068255    2      N     47
      3.7334283405       4.5893307620       0.7919460050    2      N     48
      0.1590485455       4.1261778810       5.0028862845    2      N     49
      2.7134956595       3.1888830440       2.7573054385    2      N     50
      5.0949747330       3.4341591980       2.3885120815    2      N     51
      2.4098308870       1.1678456305       6.4245062870    2      N     52
      6.8431900445       6.0977644570       0.9739983475    2      N     53
      2.0803051580       0.4345812860       2.6455831760    2      N     54
      5.6203990390       7.2869288930       3.8025129920    2      N     55
      5.8267738675       1.0476984105       1.7403764380    2      N     56
      3.8543814260       7.1002611390       4.8309438910    2      N     57
      2.5436778205       6.6554233830       7.2308113500    2      N     58
      2.0304880180       3.3748181930       0.8257190955    3      C     59
      4.6785620510       3.6915233345       4.6014187445    3      C     60
      2.5400147955       2.7685875555       5.1614220065    3      C     61
      3.5165772605       0.8914337640       4.1022949580    3      C     62
      2.7154736930       1.3169307480       1.8678497080    3      C     63
      0.4931164255       2.2605992485       1.6040386475    3      C     64
%endblock atomiccoordinatesandatomicspecies
#
# -- K-points Info follows
#
%block kgrid_monkhorst_pack
     8      0      0       0.0000000000
     0      8      0       0.0000000000
     0      0      8       0.0000000000
%endblock kgrid_monkhorst_pack
#
# -- Max wall-clock time block
#
maxwalltime 7200000
