atomiccoordinatesformat Ang
cdfsave True
dminitspinaf False
dmmixingweight 0.025
dmmixscf1 True
dmnumberpulay 10
dmtolerance 1e-05
electronictemperature 50.000 K
geometrymustconverge T
latticeconstant 1.0 Ang
maxscfiterations 1000
meshcutoff 600 Ry
noncollinearspin False
numberofatoms 64
numberofspecies 2
savehs True
solutionmethod diagon
spinorbit False
spinpolarized False
systemlabel aiida
systemname aiida
usetreetimer T
writedmhsnetcdf True
writeorbmom True
xcauthors PBEsol
xcfunctional GGA
xmlwrite T
#
# -- Basis Set Info follows
#
PAO-BasisSize DZP
PAO-SplitNorm 0.15
PAO-EnergyShift 0.005 Ry
#
# -- Structural Info follows
#
%block chemicalspecieslabel
    1     5      B
    2     7      N
%endblock chemicalspecieslabel
%block lattice-vectors
      7.4358900000       0.0000000000       0.0000000000
      0.0000000000       7.4358900000       0.0000000000
      0.0000000000       0.0000000000       7.4358900000
%endblock lattice-vectors
%block atomiccoordinatesandatomicspecies
      1.1449783422       3.4899606126       1.3765319568    1      B      1
      2.0099954259       0.5312943405       3.0310174818    1      B      2
      3.9137319837       6.6920779233       1.3415832738    1      B      3
      1.5715009926       6.2283014640       4.7925054639    1      B      4
      4.8417310557       5.2446075759       6.2406450414    1      B      5
      7.0628313987       0.2208459330       3.5390374866    1      B      6
      4.9224848211       1.1393270658       2.7870459309    1      B      7
      3.3371530731       7.2659055546       5.9680453140    1      B      8
      5.6519456301       2.0063518398       5.2053460767    1      B      9
      2.4792000849       1.7333059590       0.2931971427    1      B     10
      2.1680080884       1.3937088627       4.7516824278    1      B     11
      4.8668643639       6.2689014234       3.8781140706    1      B     12
      3.3878658429       2.9083996557       5.8638684951    1      B     13
      5.4603971037       0.3310458228       6.3047424132    1      B     14
      3.6404630262       2.6029332945       2.3475848319    1      B     15
      2.9398534704       5.0159539584       2.6633127213    1      B     16
      5.9022376875       6.3282398256       1.3364525097    1      B     17
      4.9705950294       3.3442915275       3.3552966447    1      B     18
      2.4832154655       5.1127692462       0.3672586071    1      B     19
      0.8219632806       2.1982721607       6.5615036949    1      B     20
      6.5640318975       3.8923909794       7.0903441917    1      B     21
      6.7561009362       1.2283346691       0.9075503745    1      B     22
      0.5671353303       5.7061532682       2.8309920408    1      B     23
      7.2660542724       2.2033285659       3.0414277278    1      B     24
      6.4769576256       4.2767521335       2.2440028842    1      B     25
      1.1520424377       3.5070631596       4.0080190689    1      B     26
      4.1554727676       4.2721418817       1.2270705678    1      B     27
      1.1080963278       6.8925495177       0.9013042269    1      B     28
      4.2831469989       1.8177033105       0.3739509081    1      B     29
      6.4696704534       5.4829278504       4.5582005700    1      B     30
      0.3894919182       7.1226903132       6.4304089542    1      B     31
      1.2812038470       4.3334136153       6.3147065058    1      B     32
      4.8277515825       2.2895105310       6.3927833508    2      N     33
      5.6437661511       0.9459195669       4.1197061367    2      N     34
      1.2924320409       4.7266978374       4.8941540802    2      N     35
      5.0141693448       6.9325546059       2.5295410602    2      N     36
      2.3177669130       1.9378672929       6.2007143121    2      N     37
      5.3916894801       1.6870547232       1.4729010912    2      N     38
      7.3668105819       6.7697829738       4.9121489340    2      N     39
      0.7062608322       4.1734676214       2.5985461194    2      N     40
      4.2481239570       0.1562280489       7.3562516181    2      N     41
      2.4956334018       2.8274971725       1.3312473867    2      N     42
      5.7122506980       3.6295322679       0.9190016451    2      N     43
      2.6458383798       3.2320095885       3.5640220770    2      N     44
      0.9213811299       5.7712173057       7.1203108284    2      N     45
      3.9439216971       3.3469684479       4.6034851401    2      N     46
      3.1521481299       5.4584637723       5.7275686314    2      N     47
      7.2246363651       1.9091647575       5.4883560501    2      N     48
      0.9538759692       1.3706576037       3.7484321490    2      N     49
      2.5103564640       6.9424443396       1.9038852756    2      N     50
      3.4748657559       1.0437758793       3.4005068559    2      N     51
      2.0832389424       6.2920270413       3.3852632814    2      N     52
      4.9265745606       5.6852584173       0.3682996317    2      N     53
      5.0129052435       6.7123035441       5.2912306062    2      N     54
      0.6246891189       3.5230503231       7.4242900116    2      N     55
      0.5003610381       1.8768186360       1.5964112241    2      N     56
      6.3783577242       4.2461906256       5.5790739081    2      N     57
      6.4470653478       3.2219711370       3.9135089070    2      N     58
      3.4750888326       3.8149833645       7.1264082582    2      N     59
      2.3643155844       0.2253818259       0.3813867981    2      N     60
      1.7832751398       0.0466230303       5.6691225360    2      N     61
      4.4073263619       4.8783899934       3.4777657530    2      N     62
      6.7607855469       0.4634046648       7.0991185419    2      N     63
      7.3060593606       6.4952499150       1.6783547319    2      N     64
%endblock atomiccoordinatesandatomicspecies
#
# -- K-points Info follows
#
%block kgrid_monkhorst_pack
     6      0      0       0.0000000000
     0      6      0       0.0000000000
     0      0      6       0.0000000000
%endblock kgrid_monkhorst_pack
#
# -- Max wall-clock time block
#
maxwalltime 7200000
