atomiccoordinatesformat Ang
cdfsave True
dminitspinaf False
dmmixingweight 0.025
dmmixscf1 True
dmnumberpulay 10
dmtolerance 1e-05
electronictemperature 50.000 K
geometrymustconverge T
latticeconstant 1.0 Ang
maxscfiterations 1000
meshcutoff 400 Ry
noncollinearspin False
numberofatoms 8
numberofspecies 1
savehs True
solutionmethod diagon
spinorbit False
spinpolarized False
systemlabel aiida
systemname aiida
usetreetimer T
writedmhsnetcdf True
writeorbmom True
xcauthors PBEsol
xcfunctional GGA
xmlwrite T
#
# -- Basis Set Info follows
#
PAO-BasisSize DZP
PAO-SplitNorm 0.15
PAO-EnergyShift 0.005 Ry
#
# -- Structural Info follows
#
%block chemicalspecieslabel
    1     6      C
%endblock chemicalspecieslabel
%block lattice-vectors
      3.4750700000       0.0000000000       0.0000000000
      0.0000000000       3.6389100000       0.0000000000
      0.0000000000       0.0000000000       3.3691900000
%endblock lattice-vectors
%block atomiccoordinatesandatomicspecies
      3.4473041907       3.6208246173       3.3335776617    1      C      1
      3.4539763251       1.7099601981       1.7114137524    1      C      2
      1.7013942720       3.6027756237       1.7013735662    1      C      3
      1.7013942720       1.7013723705       3.3330722832    1      C      4
      0.8325572706       0.8325462189       0.8325605409    1      C      5
      0.8326267720       2.5701257439       2.5701192077    1      C      6
      2.5760346403       0.8450276802       2.5846404166    1      C      7
      2.5720383098       2.5725638136       0.8524050700    1      C      8
%endblock atomiccoordinatesandatomicspecies
#
# -- K-points Info follows
#
%block kgrid_monkhorst_pack
     6      0      0       0.0000000000
     0      6      0       0.0000000000
     0      0      6       0.0000000000
%endblock kgrid_monkhorst_pack
#
# -- Max wall-clock time block
#
maxwalltime 7200000
