atomiccoordinatesformat Ang
cdfsave True
dminitspinaf False
dmmixingweight 0.025
dmmixscf1 True
dmnumberpulay 10
dmtolerance 1e-05
electronictemperature 50.000 K
geometrymustconverge T
latticeconstant 1.0 Ang
maxscfiterations 1000
meshcutoff 400 Ry
noncollinearspin False
numberofatoms 8
numberofspecies 2
savehs True
solutionmethod diagon
spinorbit False
spinpolarized False
systemlabel aiida
systemname aiida
usetreetimer T
writedmhsnetcdf True
writeorbmom True
xcauthors PBEsol
xcfunctional GGA
xmlwrite T
#
# -- Basis Set Info follows
#
PAO-BasisSize DZP
PAO-SplitNorm 0.15
PAO-EnergyShift 0.005 Ry
#
# -- Structural Info follows
#
%block chemicalspecieslabel
    1     7      N
    2     5      B
%endblock chemicalspecieslabel
%block lattice-vectors
      3.6745400000       0.0000000000       0.0000000000
      0.0000000000       3.6474100000       0.0000000000
      0.0000000000       0.0000000000       3.6685500000
%endblock lattice-vectors
%block atomiccoordinatesandatomicspecies
      3.6460623150       3.6214039667       3.6423198675    1      N      1
      3.6417998486       1.8128357182       1.8122637000    1      N      2
      1.8068815542       3.6266197630       1.8045964305    1      N      3
      1.7989812932       1.7989755602       3.6302503380    1      N      4
      0.8801258208       0.8801200330       0.8801218305    2      B      5
      0.8803830386       2.7175757687       2.7175884690    2      B      6
      2.7329391250       0.8916823227       2.7236415765    2      B      7
      2.7373485730       2.7184876212       0.8834602110    2      B      8
%endblock atomiccoordinatesandatomicspecies
#
# -- K-points Info follows
#
%block kgrid_monkhorst_pack
     6      0      0       0.0000000000
     0      6      0       0.0000000000
     0      0      6       0.0000000000
%endblock kgrid_monkhorst_pack
#
# -- Max wall-clock time block
#
maxwalltime 7200000
