atomiccoordinatesformat Ang
cdfsave True
dminitspinaf False
dmmixingweight 0.025
dmmixscf1 True
dmnumberpulay 10
dmtolerance 1e-05
electronictemperature 50.000 K
geometrymustconverge T
latticeconstant 1.0 Ang
maxscfiterations 1000
meshcutoff 400 Ry
noncollinearspin False
numberofatoms 8
numberofspecies 1
savehs True
solutionmethod diagon
spinorbit False
spinpolarized False
systemlabel aiida
systemname aiida
usetreetimer T
writedmhsnetcdf True
writeorbmom True
xcauthors PBEsol
xcfunctional GGA
xmlwrite T
#
# -- Basis Set Info follows
#
PAO-BasisSize DZP
PAO-SplitNorm 0.15
PAO-EnergyShift 0.005 Ry
#
# -- Structural Info follows
#
%block chemicalspecieslabel
    1     6      C
%endblock chemicalspecieslabel
%block lattice-vectors
      3.6093700000       0.0000000000       0.0000000000
      0.0000000000       3.7156800000       0.0000000000
      0.0000000000       0.0000000000       3.7485800000
%endblock lattice-vectors
%block atomiccoordinatesandatomicspecies
      3.5882190918       3.6888527904       3.7145803794    1      C      1
      3.5832381612       1.7759835696       1.7809878438    1      C      2
      1.7671475520       3.6781516320       1.7671180978    1      C      3
      1.7675806764       1.7756863152       3.7291248698    1      C      4
      0.8647328646       0.8647130496       0.8647224344    1      C      5
      0.8711214495       2.6854705632       2.6796349272    1      C      6
      2.6745070763       0.8770862640       2.6843956238    1      C      7
      2.6694539583       2.6694559824       0.8647974060    1      C      8
%endblock atomiccoordinatesandatomicspecies
#
# -- K-points Info follows
#
%block kgrid_monkhorst_pack
     6      0      0       0.0000000000
     0      6      0       0.0000000000
     0      0      6       0.0000000000
%endblock kgrid_monkhorst_pack
#
# -- Max wall-clock time block
#
maxwalltime 7200000
