atomiccoordinatesformat Ang
cdfsave True
dminitspinaf False
dmmixingweight 0.025
dmmixscf1 True
dmnumberpulay 10
dmtolerance 1e-05
electronictemperature 50.000 K
geometrymustconverge T
latticeconstant 1.0 Ang
maxscfiterations 1000
meshcutoff 400 Ry
noncollinearspin False
numberofatoms 8
numberofspecies 1
savehs True
solutionmethod diagon
spinorbit False
spinpolarized False
systemlabel aiida
systemname aiida
usetreetimer T
writedmhsnetcdf True
writeorbmom True
xcauthors PBEsol
xcfunctional GGA
xmlwrite T
#
# -- Basis Set Info follows
#
PAO-BasisSize DZP
PAO-SplitNorm 0.15
PAO-EnergyShift 0.005 Ry
#
# -- Structural Info follows
#
%block chemicalspecieslabel
    1     6      C
%endblock chemicalspecieslabel
%block lattice-vectors
      4.3597800000       0.0000000000       0.0000000000
      0.0000000000       2.5994400000       0.0000000000
      0.0000000000       0.0000000000       7.6184200000
%endblock lattice-vectors
%block atomiccoordinatesandatomicspecies
      0.0004795758       2.5988681232       7.6182676316    1      C      1
      0.7261649568       1.3415189952       7.6182676316    1      C      2
      2.9100659544       0.0045230256       0.0188174974    1      C      3
      2.1871272348       1.3492653264       0.0170652608    1      C      4
      0.0004795758       2.5988681232       3.7667754006    1      C      5
      0.7261649568       1.3415189952       3.7667754006    1      C      6
      2.9153412882       0.0104237544       3.7806409250    1      C      7
      2.1803695758       1.3415189952       3.7667754006    1      C      8
%endblock atomiccoordinatesandatomicspecies
#
# -- K-points Info follows
#
%block kgrid_monkhorst_pack
    14      0      0       0.0000000000
     0     14      0       0.0000000000
     0      0     14       0.0000000000
%endblock kgrid_monkhorst_pack
#
# -- Max wall-clock time block
#
maxwalltime 7200000
