atomiccoordinatesformat Ang
cdfsave True
dminitspinaf False
dmmixingweight 0.025
dmmixscf1 True
dmnumberpulay 10
dmtolerance 1e-05
electronictemperature 50.000 K
geometrymustconverge T
latticeconstant 1.0 Ang
maxscfiterations 1000
meshcutoff 400 Ry
noncollinearspin False
numberofatoms 64
numberofspecies 2
savehs True
solutionmethod diagon
spinorbit False
spinpolarized False
systemlabel aiida
systemname aiida
usetreetimer T
writedmhsnetcdf True
writeorbmom True
xcauthors PBEsol
xcfunctional GGA
xmlwrite T
#
# -- Basis Set Info follows
#
PAO-BasisSize DZP
PAO-SplitNorm 0.15
PAO-EnergyShift 0.005 Ry
#
# -- Structural Info follows
#
%block chemicalspecieslabel
    1     5      B
    2     7      N
%endblock chemicalspecieslabel
%block lattice-vectors
      7.7496800000       0.0000000000       0.0000000000
      0.0000000000       7.7496800000       0.0000000000
      0.0000000000       0.0000000000       7.7496800000
%endblock lattice-vectors
%block atomiccoordinatesandatomicspecies
      2.2893329688       2.1430965072       5.4934381648    1      B      1
      4.4865997392       4.3660922152       1.3764981616    1      B      2
      1.1713641320       4.0690469808       1.8968891736    1      B      3
      1.2445986080       1.1048718776       6.8421149752    1      B      4
      6.5895529040       3.6429695744       1.0647285352    1      B      5
      2.9390661400       2.7332346392       3.0705007128    1      B      6
      3.9549716912       3.8941367032       5.1746163296    1      B      7
      6.1825397104       7.6110382248       3.7561149024    1      B      8
      6.2276428480       3.2306091016       5.1754687944    1      B      9
      4.3569475928       1.5750449632       3.8917343024    1      B     10
      1.2759848120       6.2142359016       2.6921613352    1      B     11
      2.1445689464       0.9238393528       1.3465843968    1      B     12
      6.6493804336       5.1925955872       2.6381460656    1      B     13
      2.9519306088       7.3804077480       6.4065054624    1      B     14
      3.3579363440       3.1761288512       0.2204008992    1      B     15
      7.2392085784       1.1188213016       5.3223252304    1      B     16
      5.3938547768       3.0481816344       6.9926137608    1      B     17
      4.6314412584       1.5590806224       5.8763498536    1      B     18
      0.4651357936       6.5130635624       5.8000930024    1      B     19
      0.2622491712       1.6836179800       1.1467201496    1      B     20
      3.0655409176       6.5039189400       1.0569788552    1      B     21
      1.7157016552       4.4379317488       4.4944269160    1      B     22
      6.3748092712       1.8686803384       2.9134146992    1      B     23
      6.6120269760       5.0327196888       7.0539912264    1      B     24
      6.5170158992       7.4095465448       7.5659350872    1      B     25
      3.9943400656       5.7020595504       3.3411195384    1      B     26
      4.2756534496       5.1577995240       7.2868691104    1      B     27
      5.9687260392       5.7499525728       4.9343762496    1      B     28
      4.7407117464       0.4569986296       1.7357733264    1      B     29
      0.6281115640       6.9219366792       0.3697372328    1      B     30
      1.6796656432       4.6161743888       6.9590576464    1      B     31
      1.7948258880       0.5487548408       4.3860088928    1      B     32
      1.9378849808       2.1232573264       2.1879671544    2      N     33
      4.7907746792       2.6723996512       4.8366527848    2      N     34
      1.4082718496       4.8464173816       3.1331956240    2      N     35
      0.9716548784       0.6138521528       0.4075556712    2      N     36
      3.8033104536       5.5885267384       1.9354050832    2      N     37
      0.9701049424       1.3560390064       5.4572471592    2      N     38
      2.6843341584       3.3202728992       4.5433273968    2      N     39
      6.9376685296       7.3251525296       5.1943005168    2      N     40
      4.0324684912       3.7479002416       6.7283496728    2      N     41
      3.3468543016       0.1370918392       1.4779414728    2      N     42
      1.7581699016       7.2662549616       5.5479184152    2      N     43
      2.9015576888       1.3299225848       3.7544099728    2      N     44
      3.4848761024       6.4016231640       7.3631259616    2      N     45
      4.5589042536       5.1648517328       4.5513095672    2      N     46
      6.7792650704       2.1469713472       4.2635639488    2      N     47
      6.4978741896       6.1728526104       3.6162331784    2      N     48
      6.4372716920       4.5728536776       5.6620712016    2      N     49
      5.4267134200       4.5189159048       2.4338645008    2      N     50
      5.6899700496       0.3512154976       0.6973937032    2      N     51
      7.5357113352       4.5084538368       1.7562324816    2      N     52
      5.3224027272       0.8155763232       3.0491115960    2      N     53
      1.1872509760       7.3626609808       3.4768939320    2      N     54
      6.1269745048       1.9498969848       6.1596781544    2      N     55
      1.2300292096       5.1574895368       5.7177914008    2      N     56
      3.2767196976       1.0963472296       6.1029504968    2      N     57
      7.4029593168       6.3112618952       7.1697714456    2      N     58
      6.7797300512       2.3030499024       1.6030213080    2      N     59
      3.5229270312       3.2527731864       1.7139192288    2      N     60
      1.1413728704       2.6038149832       1.9039413824    2      N     61
      5.5469109568       4.3309861648       0.1705704568    2      N     62
      1.5826396496       6.3810865120       1.2796271616    2      N     63
      1.7263187168       4.4929544768       0.6050175176    2      N     64
%endblock atomiccoordinatesandatomicspecies
#
# -- K-points Info follows
#
%block kgrid_monkhorst_pack
     4      0      0       0.0000000000
     0      4      0       0.0000000000
     0      0      4       0.0000000000
%endblock kgrid_monkhorst_pack
#
# -- Max wall-clock time block
#
maxwalltime 7200000
