atomiccoordinatesformat Ang
cdfsave True
dminitspinaf False
dmmixingweight 0.025
dmmixscf1 True
dmnumberpulay 10
dmtolerance 1e-05
electronictemperature 50.000 K
geometrymustconverge T
latticeconstant 1.0 Ang
maxscfiterations 1000
meshcutoff 400 Ry
noncollinearspin False
numberofatoms 64
numberofspecies 2
savehs True
solutionmethod diagon
spinorbit False
spinpolarized False
systemlabel aiida
systemname aiida
usetreetimer T
writedmhsnetcdf True
writeorbmom True
xcauthors PBEsol
xcfunctional GGA
xmlwrite T
#
# -- Basis Set Info follows
#
PAO-BasisSize DZP
PAO-SplitNorm 0.15
PAO-EnergyShift 0.005 Ry
#
# -- Structural Info follows
#
%block chemicalspecieslabel
    1     5      B
    2     6      C
%endblock chemicalspecieslabel
%block lattice-vectors
      6.6497300000       0.0000000000       0.0000000000
      0.0000000000       6.6497300000       0.0000000000
      0.0000000000       0.0000000000       6.6497300000
%endblock lattice-vectors
%block atomiccoordinatesandatomicspecies
      4.1792888077       0.9391413679       3.5187711268    1      B      1
      3.3847125700       2.0388072180       2.5897373485    1      B      2
      0.3372078083       1.8777507574       6.4450513106    1      B      3
      1.2157701359       1.7799997264       2.2870416389    1      B      4
      2.1053710153       0.6216832577       2.7301796461    1      B      5
      1.9715784477       2.9863272457       1.9514297658    1      B      6
      4.5537351040       0.7513529927       2.0575594566    1      B      7
      2.7666866638       1.9323450407       1.0139508304    1      B      8
      5.3441220118       1.7714880720       1.7289962973    1      B      9
      1.2208239307       2.1557759687       0.8451141857    1      B     10
      2.9044690694       0.5844447697       4.0596601650    1      B     11
      2.5999114354       3.2429403264       3.3977460408    1      B     12
      0.8624034837       1.4890075416       4.3481919497    1      B     13
      0.2532882157       2.4242920661       5.1402412900    1      B     14
      4.0899164365       3.2455337211       6.1936915166    1      B     15
      5.6847211824       0.8548227915       3.6981143449    1      B     16
      5.6541324244       2.9548075255       5.5204728514    1      B     17
      3.7324269517       1.7046582855       6.3685794156    1      B     18
      3.3805232401       3.3138929455       4.6799469794    1      B     19
      4.7814218592       0.6051919273       5.3497742823    1      B     20
      1.1335129758       3.0584768162       4.0836656903    1      B     21
      1.8065986464       1.3193729293       5.6891100042    1      B     22
      5.9667362317       4.4017887735       1.4783679736    1      B     23
      2.5536293146       5.7715001589       0.3492438196    1      B     24
      1.7226125565       4.2507069079       2.6240499553    1      B     25
      4.5686969965       4.1399889034       3.3206091728    1      B     26
      1.0316391122       3.8206688688       1.0837729954    1      B     27
      0.2252928524       3.2731965979       2.5188512267    1      B     28
      5.5688163885       5.8242325178       1.2969633392    1      B     29
      4.0436343157       0.3791011073       0.6224812253    1      B     30
      0.9705945908       6.3050744941       1.4781019844    1      B     31
      2.5525653578       5.0601785408       1.9148562508    1      B     32
      6.4140635688       3.6385327641       0.2351344528    1      B     33
      3.7116797941       5.3091444320       1.1056506071    1      B     34
      4.5633107152       5.6308583694       0.1103190207    1      B     35
      1.9824175076       6.2249452476       4.2715205628    1      B     36
      6.4468467377       5.2977733937       5.8109995551    1      B     37
      5.9687311507       6.4624071059       6.6259239666    1      B     38
      1.9284881973       3.3904978351       6.4556243813    1      B     39
      0.1673072068       0.1565346442       5.1056626940    1      B     40
      6.4577522949       3.8230627716       3.7283041191    1      B     41
      0.6738171409       4.5329214491       4.4644957274    1      B     42
      6.4806273661       5.6142340444       3.9077803318    1      B     43
      1.1410936680       5.2221659636       0.0597810727    1      B     44
      3.3773978670       5.5179459540       4.0706987168    1      B     45
      1.8135808629       6.4483761756       6.0233254340    1      B     46
      0.3428600788       0.9926716944       3.1162629699    2      C     47
      4.6383861669       3.1850876754       0.9142713777    2      C     48
      4.7507001066       2.7281182298       2.7896282323    2      C     49
      5.4279751071       1.4262340904       0.1899827861    2      C     50
      6.3084658564       2.6520453186       1.4022950624    2      C     51
      0.1996248946       0.8768333978       1.4325513339    2      C     52
      3.0217038093       1.9681205881       4.8481851484    2      C     53
      2.1213968646       1.8107214790       3.6072790331    2      C     54
      5.5838447783       5.1727584697       2.7817815509    2      C     55
      4.3397467926       6.0400827536       2.2667599624    2      C     56
      2.5477775522       6.4902694746       1.7187557131    2      C     57
      2.5981160083       4.2399343453       0.6779399735    2      C     58
      0.6650394973       5.2532867000       2.5957221055    2      C     59
      1.1170881427       3.9942268218       5.5948168328    2      C     60
      1.4620761351       5.3876777433       5.1391773332    2      C     61
      4.7622706368       5.5192759000       5.4397451292    2      C     62
      3.1468517279       0.2049446786       5.5351687547    2      C     63
      4.0999575288       4.3858294215       5.0988799694    2      C     64
%endblock atomiccoordinatesandatomicspecies
#
# -- K-points Info follows
#
%block kgrid_monkhorst_pack
    12      0      0       0.0000000000
     0     12      0       0.0000000000
     0      0     12       0.0000000000
%endblock kgrid_monkhorst_pack
#
# -- Max wall-clock time block
#
maxwalltime 7200000
