atomiccoordinatesformat Ang
cdfsave True
dminitspinaf False
dmmixingweight 0.025
dmmixscf1 True
dmnumberpulay 10
dmtolerance 1e-05
electronictemperature 50.000 K
geometrymustconverge T
latticeconstant 1.0 Ang
maxscfiterations 1000
meshcutoff 600 Ry
noncollinearspin False
numberofatoms 64
numberofspecies 2
savehs True
solutionmethod diagon
spinorbit False
spinpolarized False
systemlabel aiida
systemname aiida
usetreetimer T
writedmhsnetcdf True
writeorbmom True
xcauthors PBEsol
xcfunctional GGA
xmlwrite T
#
# -- Basis Set Info follows
#
PAO-BasisSize DZP
PAO-SplitNorm 0.15
PAO-EnergyShift 0.005 Ry
#
# -- Structural Info follows
#
%block chemicalspecieslabel
    1     7      N
    2     6      C
%endblock chemicalspecieslabel
%block lattice-vectors
      7.3342700000       0.0000000000       0.0000000000
      0.0000000000       7.3342700000       0.0000000000
      0.0000000000       0.0000000000       7.3342700000
%endblock lattice-vectors
%block atomiccoordinatesandatomicspecies
      0.1852636602       1.2268766856       1.0353055532    1      N      1
      0.7766258503       3.2466613009       0.2897036650    1      N      2
      3.8694141666       1.0576750767       1.4196946439    1      N      3
      6.8580558489       1.0275312270       2.5955248103    1      N      4
      1.1325579734       7.3308962358       1.9868537430    1      N      5
      1.9666845005       1.0884056680       3.2696909087    1      N      6
      2.3703627213       3.3856457174       3.1157445814    1      N      7
      0.9790517023       3.3292451811       2.2715701044    1      N      8
      2.1716040043       3.8482181263       0.7076837123    1      N      9
      6.2010519423       7.2643744069       1.4656805168    1      N     10
      4.7622881964       0.0173822199       2.1573755205    1      N     11
      5.5188181469       1.5987241746       3.1912142197    1      N     12
      4.1158456386       1.6030513939       3.7979050341    1      N     13
      0.5692860374       1.6827749088       4.6398792301    1      N     14
      6.3443635781       0.9695171513       6.4871618150    1      N     15
      5.8396191167       3.1333468294       5.8677827135    1      N     16
      2.6107067492       2.2339452993       4.2144915701    1      N     17
      3.0203990714       3.2471013571       6.9064620309    1      N     18
      1.9940413276       1.8766930076       5.7443469494    1      N     19
      2.0832993935       0.1396445008       7.0277708567    1      N     20
      3.6622943818       2.9434625791       5.4830269093    1      N     21
      4.8657014034       1.8640047205       6.1632071091    1      N     22
      4.7154222111       3.5672422426       7.0938526294    1      N     23
      4.1434958365       0.1818165533       4.6545477701    1      N     24
      4.1595578878       3.3364327657       4.1389485891    1      N     25
      3.8348697549       5.5661241884       4.0133858867    1      N     26
      6.4886286690       5.6237715506       1.2239429776    1      N     27
      1.8912148622       6.0778362063       2.8905824924    1      N     28
      4.8034334511       3.4554679678       2.6935106575    1      N     29
      5.0913035486       6.6336271869       3.5327711736    1      N     30
      3.5049742903       4.7302374365       2.6389436887    1      N     31
      4.4480147269       7.1992460893       7.1199626306    1      N     32
      3.1736119717       7.1739428578       2.8622722102    1      N     33
      5.5829196667       4.7403587291       2.1777647911    1      N     34
      4.6394391739       4.5544349846       0.8249586896    1      N     35
      0.9170037781       5.3881947982       0.8768119785    1      N     36
      2.7124330741       5.1538648717       1.3504591351    1      N     37
      3.0807601135       5.7646628773       7.1274435860    1      N     38
      4.2167651938       6.2207077859       1.1376919624    1      N     39
      6.7254522473       4.9634672225       5.3796870450    1      N     40
      0.1588602882       6.2941238286       6.3650462195    1      N     41
      0.4982903038       4.6299779656       3.5048276049    1      N     42
      6.4034044516       5.7029816666       3.4647824907    1      N     43
      6.3987105188       7.1120416190       4.6623220963    1      N     44
      5.8072016433       6.5561772957       6.2848826484    1      N     45
      2.4022667958       4.5058087745       5.3658986174    1      N     46
      6.5268402157       3.6675017135       4.3030895517    1      N     47
      6.7628570243       4.1772334785       6.9748907700    1      N     48
      0.8688176242       6.4548176843       4.6801443724    1      N     49
      2.2412795693       6.7011758136       5.4157716534    1      N     50
      5.1036251222       4.5651430188       4.3451149188    1      N     51
      1.0845185049       3.3105427926       5.4438619075    1      N     52
      6.9570684939       2.6693809092       2.6193611878    2      C     53
      0.6160053373       7.0612151279       0.2622734952    2      C     54
      2.7940634992       2.4125347738       1.4083265254    2      C     55
      4.9414644125       2.3163824941       1.4449978754    2      C     56
      6.3759009391       2.9003370715       0.9503013639    2      C     57
      3.3170702929       0.7559432089       5.9385584190    2      C     58
      3.7638740213       1.6342220414       7.3137340440    2      C     59
      1.7179060621       1.5888229101       0.2779688330    2      C     60
      0.2580929613       1.9189384028       6.6514494630    2      C     61
      0.2882368110       0.3331958861       3.7307964636    2      C     62
      0.9713507188       4.8642345494       6.0763693523    2      C     63
      3.9953435825       4.9523924748       5.9173623787    2      C     64
%endblock atomiccoordinatesandatomicspecies
#
# -- K-points Info follows
#
%block kgrid_monkhorst_pack
     8      0      0       0.0000000000
     0      8      0       0.0000000000
     0      0      8       0.0000000000
%endblock kgrid_monkhorst_pack
#
# -- Max wall-clock time block
#
maxwalltime 7200000
