atomiccoordinatesformat Ang
cdfsave True
dminitspinaf False
dmmixingweight 0.025
dmmixscf1 True
dmnumberpulay 10
dmtolerance 1e-05
electronictemperature 50.000 K
geometrymustconverge T
latticeconstant 1.0 Ang
maxscfiterations 1000
meshcutoff 400 Ry
noncollinearspin False
numberofatoms 8
numberofspecies 2
savehs True
solutionmethod diagon
spinorbit False
spinpolarized False
systemlabel aiida
systemname aiida
usetreetimer T
writedmhsnetcdf True
writeorbmom True
xcauthors PBEsol
xcfunctional GGA
xmlwrite T
#
# -- Basis Set Info follows
#
PAO-BasisSize DZP
PAO-SplitNorm 0.15
PAO-EnergyShift 0.005 Ry
#
# -- Structural Info follows
#
%block chemicalspecieslabel
    1     5      B
    2     7      N
%endblock chemicalspecieslabel
%block lattice-vectors
      4.6960700000       0.0000000000       0.0000000000
      0.0000000000       2.5946700000       0.0000000000
      0.0000000000       0.0000000000       7.0289300000
%endblock lattice-vectors
%block atomiccoordinatesandatomicspecies
      0.0905402296       2.5942807995       0.0009840502    1      B      1
      0.8320027219       1.3187669742       0.0186266645    2      N      2
      3.0422550281       0.0192265047       0.0042173580    1      B      3
      2.3234275932       1.3149787560       0.0081535588    2      N      4
      4.6620234925       0.0155939667       3.5129889247    2      N      5
      0.7026729541       1.3282894131       3.5077172272    1      B      6
      3.1747311628       0.0143225784       3.5184714901    2      N      7
      2.4385752296       1.3115018982       3.5051165231    1      B      8
%endblock atomiccoordinatesandatomicspecies
#
# -- K-points Info follows
#
%block kgrid_monkhorst_pack
    14      0      0       0.0000000000
     0     14      0       0.0000000000
     0      0     14       0.0000000000
%endblock kgrid_monkhorst_pack
#
# -- Max wall-clock time block
#
maxwalltime 7200000
