atomiccoordinatesformat Ang
cdfsave True
dminitspinaf False
dmmixingweight 0.025
dmmixscf1 True
dmnumberpulay 10
dmtolerance 1e-05
electronictemperature 50.000 K
geometrymustconverge T
latticeconstant 1.0 Ang
maxscfiterations 1000
meshcutoff 600 Ry
noncollinearspin False
numberofatoms 64
numberofspecies 3
savehs True
solutionmethod diagon
spinorbit False
spinpolarized False
systemlabel aiida
systemname aiida
usetreetimer T
writedmhsnetcdf True
writeorbmom True
xcauthors PBEsol
xcfunctional GGA
xmlwrite T
#
# -- Basis Set Info follows
#
PAO-BasisSize DZP
PAO-SplitNorm 0.15
PAO-EnergyShift 0.005 Ry
#
# -- Structural Info follows
#
%block chemicalspecieslabel
    1     5      B
    2     7      N
    3     6      C
%endblock chemicalspecieslabel
%block lattice-vectors
      8.2571300000       0.0000000000       0.0000000000
      0.0000000000       8.4390400000       0.0000000000
      0.0000000000       0.0000000000       8.3115400000
%endblock lattice-vectors
%block atomiccoordinatesandatomicspecies
      7.3740299465       3.1005876864       2.0854485014    1      B      1
      3.7495627330       5.2648638848       3.0505845262    1      B      2
      4.8781472614       1.8040979712       2.6567837610    1      B      3
      0.5168963380       1.8700912640       4.3161827220    1      B      4
      5.7477881930       7.4773270016       0.0687364358    1      B      5
      1.1664847551       3.5460002176       6.0660112382    1      B      6
      6.7644886099       3.8940262272       4.4849069840    1      B      7
      2.9632362431       7.2260123904       2.2681361506    1      B      8
      6.5674734881       0.1016904320       4.9512674934    1      B      9
      1.3375724887       2.8037866496       1.3046624338    1      B     10
      3.3541287773       3.1456521600       7.2563899970    1      B     11
      2.3480800581       0.4596745088       0.8458654258    1      B     12
      8.1858709681       7.7018898560       4.0334241312    1      B     13
      4.4839518752       2.6763571456       4.9358911444    1      B     14
      2.4831667049       5.0678966912       1.5194326274    1      B     15
      6.8872721330       0.2529180288       2.0972508882    1      B     16
      6.7023124210       6.5942658560       5.9962774176    1      B     17
      1.3759681432       4.3713383296       7.7743651698    2      N     18
      0.4652067042       3.7238951808       4.0643430600    2      N     19
      0.5903022237       4.8079742592       1.6848322734    2      N     20
      5.7584398907       5.5731420160       7.5598443224    2      N     21
      3.3955795699       2.6841210624       1.3692430996    2      N     22
      2.0847601824       1.6731240704       7.5611741688    2      N     23
      6.5782077571       1.8117774976       3.7761819682    2      N     24
      5.0174450445       3.8260075648       3.3287717700    2      N     25
      7.3980581948       4.2150473088       6.3280740944    2      N     26
      3.7706184145       7.0437291264       8.2901793422    2      N     27
      6.3676509421       1.6392835200       0.8084634958    2      N     28
      1.3106542449       5.6772797696       3.5097971112    2      N     29
      7.3235788822       5.9796505728       4.2686407132    2      N     30
      5.0963006360       5.8917157760       1.5930728718    2      N     31
      0.7142417450       5.7956795008       5.7360431002    2      N     32
      0.3054312387       0.3579840768       0.5305255982    2      N     33
      3.7129836471       4.7549770880       8.2841119180    2      N     34
      0.3993973781       1.4349743616       2.4775038432    2      N     35
      7.4376924188       6.6900489600       1.5217598586    3      C     36
      7.2655312583       4.1963126400       0.2013054988    3      C     37
      4.8783949753       0.7752946048       6.2386419240    3      C     38
      4.4394459445       1.1650094720       8.1108163090    3      C     39
      5.4603574977       2.9816816128       7.4738198834    3      C     40
      0.1113886837       1.2524379264       6.1246907106    3      C     41
      5.1470819855       5.8285917568       4.5018625256    3      C     42
      6.4906821791       2.2237714304       6.0464791192    3      C     43
      5.3697767816       3.7853313920       1.1327797866    3      C     44
      2.6118953616       1.9306835712       5.3664289164    3      C     45
      7.8940639939       6.1330723200       7.7601524364    3      C     46
      4.7825296960       4.3710851584       6.0076642274    3      C     47
      2.8085801982       8.2777699456       6.7456458640    3      C     48
      4.5656148909       8.3993765120       1.6491757668    3      C     49
      6.9153463750       0.0611830400       7.3503103990    3      C     50
      2.9786770762       6.9168903552       4.5484902650    3      C     51
      2.6308041893       3.2856558336       3.2984346490    3      C     52
      2.7947907911       4.5242537344       4.9846798842    3      C     53
      4.5752757330       7.0898062848       6.0266145386    3      C     54
      0.8718703567       7.4335283840       2.3367894710    3      C     55
      4.1284824287       0.5470185728       4.2581681728    3      C     56
      2.7506977169       5.8706181760       6.6414191524    3      C     57
      6.8440047718       5.0760825600       2.4802466514    3      C     58
      5.5664616182       7.5080451072       3.3286055392    3      C     59
      2.5443520382       0.9675359360       2.9124467314    3      C     60
      8.2196426298       2.4038605440       7.8869865368    3      C     61
      0.7746839366       7.7758158464       6.7127321656    3      C     62
      1.6966750724       8.3536369152       4.6959369846    3      C     63
      1.5044490860       6.7179821824       0.1480285274    3      C     64
%endblock atomiccoordinatesandatomicspecies
#
# -- K-points Info follows
#
%block kgrid_monkhorst_pack
     8      0      0       0.0000000000
     0      8      0       0.0000000000
     0      0      8       0.0000000000
%endblock kgrid_monkhorst_pack
#
# -- Max wall-clock time block
#
maxwalltime 7200000
