atomiccoordinatesformat Ang
cdfsave True
dminitspinaf False
dmmixingweight 0.025
dmmixscf1 True
dmnumberpulay 10
dmtolerance 1e-05
electronictemperature 50.000 K
geometrymustconverge T
latticeconstant 1.0 Ang
maxscfiterations 1000
meshcutoff 600 Ry
noncollinearspin False
numberofatoms 64
numberofspecies 3
savehs True
solutionmethod diagon
spinorbit False
spinpolarized False
systemlabel aiida
systemname aiida
usetreetimer T
writedmhsnetcdf True
writeorbmom True
xcauthors PBEsol
xcfunctional GGA
xmlwrite T
#
# -- Basis Set Info follows
#
PAO-BasisSize DZP
PAO-SplitNorm 0.15
PAO-EnergyShift 0.005 Ry
#
# -- Structural Info follows
#
%block chemicalspecieslabel
    1     5      B
    2     7      N
    3     6      C
%endblock chemicalspecieslabel
%block lattice-vectors
      8.1260500000       0.0000000000       0.0000000000
      0.0000000000       8.4693200000       0.0000000000
      0.0000000000       0.0000000000       7.9433300000
%endblock lattice-vectors
%block atomiccoordinatesandatomicspecies
      6.5043342015       0.1025634652       3.4670252451    1      B      1
      7.9176168175       2.2574125528       7.6684113487    1      B      2
      1.5048631995       3.4908843176       5.9119027858    1      B      3
      3.3340370545       1.0715383664       0.3229757978    1      B      4
      5.5532613095       0.2907517556       5.6643886230    1      B      5
      7.1053368595       6.4978316904       3.9836594283    1      B      6
      7.5020506205       0.9918420652       5.2149550116    1      B      7
      3.1733037855       2.8627995464       7.0347719146    1      B      8
      3.0871676555       5.1745851336       7.5116894478    1      B      9
      5.3883837550       2.5634090844       5.0965199613    1      B     10
      3.2405062190       5.8475573008       4.0133674825    1      B     11
      3.5887074615       7.9690372676       2.4704550633    1      B     12
      2.1292688815       7.6350919800       6.6974981228    1      B     13
      5.0561095705       5.5610402052       0.8711450011    1      B     14
      0.4067088025       8.3532903160       0.8455674785    1      B     15
      6.7296695680       6.7244706936       6.1595758152    1      B     16
      6.2009074945       4.6010427832       6.7391211720    1      B     17
      5.1905144375       1.9544649764       7.1513005657    1      B     18
      1.7387309185       1.5683486776       1.4004885123    1      B     19
      1.5198151315       6.0846982608       1.2116755582    1      B     20
      3.4004268830       3.5173932892       1.3028649866    1      B     21
      0.4820372860       4.3993882740       2.1965690449    1      B     22
      6.1838427895       2.4127398816       1.5741297061    1      B     23
      4.6428186675       6.3106597184       6.7367381730    1      B     24
      0.2203784760       5.1777187820       5.6764624846    1      B     25
      4.4691649790       1.4470680152       1.7225905438    2      N     26
      1.4812976545       7.5614088960       2.6900881378    2      N     27
      7.4391549935       4.2383865008       0.2959684758    2      N     28
      4.9461641140       6.8499860160       4.9212106682    2      N     29
      6.5333442000       0.6650110064       7.4452832090    2      N     30
      2.4756823930       1.1608049992       3.2234827473    2      N     31
      3.0369486665       7.6731192268       4.5391364952    2      N     32
      0.0521692410       7.8827348968       6.6986896223    2      N     33
      3.9429219810       8.4158785908       6.5866886693    2      N     34
      5.9424178440       4.8323399124       4.6345358885    2      N     35
      6.4135662230       2.4395029328       3.4198418649    2      N     36
      3.2606588230       5.5798420956       1.7657228257    2      N     37
      4.3571880100       4.2698076780       5.9516988691    2      N     38
      2.6360906200       7.5219418648       0.4606337067    2      N     39
      5.1629671280       3.5389900552       0.3508568861    2      N     40
      4.7965635335       4.9133066116       3.1897235948    2      N     41
      4.7142466470       0.6899108072       3.9196361885    2      N     42
      6.5434205020       4.6456760996       2.0929085884    2      N     43
      1.5079510985       5.4456033736       3.7084230438    2      N     44
      6.6150922630       0.2743212748       1.5788957041    2      N     45
      2.9796600140       3.9495826888       4.5498599907    2      N     46
      0.0646020975       2.3378710928       1.7043208848    2      N     47
      2.3220187875       5.9095527232       5.9564648671    2      N     48
      2.2008593820       3.4023799236       2.5855539150    2      N     49
      0.9026416340       2.5706080064       4.1795419461    2      N     50
      6.7285319210       6.5452598824       0.2026343483    2      N     51
      1.4714651340       0.6838975900       5.1916016214    3      C     52
      7.6726164100       6.5467843600       2.0271378160    3      C     53
      1.4721152180       3.7247222428       0.2347254015    3      C     54
      7.8548837115       4.0379176964       3.9699969007    3      C     55
      0.7496281125       7.1812211212       4.7260430501    3      C     56
      0.2064829305       0.7459777056       3.0496032536    3      C     57
      4.2468362510       2.8985400768       3.2774179580    3      C     58
      5.3826142595       6.9295129308       2.6241584988    3      C     59
      1.4331101780       1.3091874856       7.1012575867    3      C     60
      0.5597223240       5.6813892424       7.4379753454    3      C     61
      7.3192144955       2.9146317848       5.9346207096    3      C     62
      4.9581906680       7.8067650964       0.5426088723    3      C     63
      3.2744731080       1.6875120100       5.2221040086    3      C     64
%endblock atomiccoordinatesandatomicspecies
#
# -- K-points Info follows
#
%block kgrid_monkhorst_pack
     8      0      0       0.0000000000
     0      8      0       0.0000000000
     0      0      8       0.0000000000
%endblock kgrid_monkhorst_pack
#
# -- Max wall-clock time block
#
maxwalltime 7200000
