atomiccoordinatesformat Ang
cdfsave True
dminitspinaf False
dmmixingweight 0.025
dmmixscf1 True
dmnumberpulay 10
dmtolerance 1e-05
electronictemperature 50.000 K
geometrymustconverge T
latticeconstant 1.0 Ang
maxscfiterations 1000
meshcutoff 600 Ry
noncollinearspin False
numberofatoms 64
numberofspecies 2
savehs True
solutionmethod diagon
spinorbit False
spinpolarized False
systemlabel aiida
systemname aiida
usetreetimer T
writedmhsnetcdf True
writeorbmom True
xcauthors PBEsol
xcfunctional GGA
xmlwrite T
#
# -- Basis Set Info follows
#
PAO-BasisSize DZP
PAO-SplitNorm 0.15
PAO-EnergyShift 0.005 Ry
#
# -- Structural Info follows
#
%block chemicalspecieslabel
    1     7      N
    2     6      C
%endblock chemicalspecieslabel
%block lattice-vectors
      8.2000000000       0.0000000000       0.0000000000
      0.0000000000       8.2000000000       0.0000000000
      0.0000000000       0.0000000000       8.2000000000
%endblock lattice-vectors
%block atomiccoordinatesandatomicspecies
      1.6919060000       3.0222740000       1.4099900000    1      N      1
      6.9413820000       1.8660740000       2.1003480000    1      N      2
      5.3183560000       1.4593540000       0.9306180000    1      N      3
      4.8670280000       3.4394900000       3.2816400000    1      N      4
      1.4368040000       0.9493960000       0.5446440000    1      N      5
      4.1009020000       1.6309800000       3.3555220000    1      N      6
      5.6794840000       3.0879560000       4.7222980000    1      N      7
      6.9627840000       2.2321220000       5.6448800000    1      N      8
      5.4190520000       7.9991000000       4.4457940000    1      N      9
      7.8777400000       1.5917020000       7.3581060000    1      N     10
      1.0548480000       3.8437500000       6.8045240000    1      N     11
      7.6694600000       0.2519040000       0.3760520000    1      N     12
      0.7384100000       3.9765080000       4.1801140000    1      N     13
      1.4094160000       2.2000600000       7.4764320000    1      N     14
      4.4633420000       2.8039900000       6.3147380000    1      N     15
      6.8605300000       1.0456640000       4.3126260000    1      N     16
      4.6594040000       1.3720240000       5.2988400000    1      N     17
      4.9706760000       3.8133280000       7.7786020000    1      N     18
      1.1510340000       5.8479940000       1.8509040000    1      N     19
      6.8857040000       4.8206980000       7.9897520000    1      N     20
      6.0623420000       7.7898360000       1.1828500000    1      N     21
      7.1525320000       5.9972340000       1.7387280000    1      N     22
      2.6775460000       4.9485360000       2.6024340000    1      N     23
      6.9759860000       4.0515380000       2.0959200000    1      N     24
      3.8621180000       5.7593520000       1.3781740000    1      N     25
      1.7090440000       7.5553980000       1.1733380000    1      N     26
      5.0369320000       6.1727960000       2.8587660000    1      N     27
      1.8889520000       7.7980360000       6.0093700000    1      N     28
      7.3289140000       6.0341340000       4.4298040000    1      N     29
      1.8933800000       5.3058920000       5.7115460000    1      N     30
      2.3961220000       4.6050380000       0.1672800000    1      N     31
      3.0008720000       3.5601120000       6.4409360000    1      N     32
      8.0341960000       6.5251500000       8.0355080000    1      N     33
      6.3983780000       5.8081420000       6.1098200000    1      N     34
      4.3710100000       4.6653080000       4.6068420000    1      N     35
      3.6597420000       5.5143360000       6.3041600000    1      N     36
      4.8846580000       6.3211340000       5.1773980000    1      N     37
      8.0555980000       4.8935140000       6.1652520000    1      N     38
      5.4602980000       0.7556300000       2.7826700000    2      C     39
      2.8417920000       1.4868240000       2.0404060000    2      C     40
      2.7786520000       3.3922580000       3.4545780000    2      C     41
      5.9568900000       1.3082280000       6.8725020000    2      C     42
      0.2159060000       1.9342980000       3.0846760000    2      C     43
      1.4663240000       0.7520220000       4.3348480000    2      C     44
      0.5904820000       2.1229800000       5.4710400000    2      C     45
      7.6303460000       7.9644960000       6.3021100000    2      C     46
      4.1574820000       1.5442240000       7.7107880000    2      C     47
      2.5928400000       2.0703360000       4.8840020000    2      C     48
      6.4536460000       2.7916080000       0.1698220000    2      C     49
      7.0798800000       7.5003760000       2.9382240000    2      C     50
      5.0633360000       4.2409580000       1.8651720000    2      C     51
      3.2086600000       6.2078920000       3.9502680000    2      C     52
      0.9323400000       6.6738980000       3.4376040000    2      C     53
      3.5683940000       8.1188200000       0.8169660000    2      C     54
      1.6739480000       6.7900920000       7.4407620000    2      C     55
      4.0163600000       5.5751800000       7.8842180000    2      C     56
      5.8808760000       7.3650760000       6.5902580000    2      C     57
      6.3652500000       4.1297660000       5.8106840000    2      C     58
      0.0991380000       3.8690060000       0.3792500000    2      C     59
      4.4153720000       7.6099280000       7.4831560000    2      C     60
      3.5720020000       8.1385820000       5.0446400000    2      C     61
      0.0858540000       7.9249720000       4.5660880000    2      C     62
      5.6908820000       6.0073200000       0.1855660000    2      C     63
      2.5710280000       7.8277200000       3.3138660000    2      C     64
%endblock atomiccoordinatesandatomicspecies
#
# -- K-points Info follows
#
%block kgrid_monkhorst_pack
     8      0      0       0.0000000000
     0      8      0       0.0000000000
     0      0      8       0.0000000000
%endblock kgrid_monkhorst_pack
#
# -- Max wall-clock time block
#
maxwalltime 7200000
